*SPEF "ieee 1481-1999"
*DESIGN "pattern_detector"
*DATE "11:11:11 Fri 11 11, 1111"
*VENDOR "OpenRCX"
*PROGRAM "Parallel Extraction"
*VERSION "1.0"
*DESIGN_FLOW "NAME_SCOPE LOCAL" "PIN_CAP NONE"
*DIVIDER /
*DELIMITER :
*BUS_DELIMITER []
*T_UNIT 1 NS
*C_UNIT 1 PF
*R_UNIT 1 OHM
*L_UNIT 1 HENRY

*NAME_MAP
*1 any_match
*2 cfg_en
*3 cfg_idx[0]
*4 cfg_idx[1]
*5 cfg_mask[0]
*6 cfg_mask[1]
*7 cfg_mask[2]
*8 cfg_mask[3]
*9 cfg_mask[4]
*10 cfg_mask[5]
*11 cfg_mask[6]
*12 cfg_mask[7]
*13 cfg_pattern[0]
*14 cfg_pattern[1]
*15 cfg_pattern[2]
*16 cfg_pattern[3]
*17 cfg_pattern[4]
*18 cfg_pattern[5]
*19 cfg_pattern[6]
*20 cfg_pattern[7]
*21 cfg_we
*22 clk
*23 data_in
*24 data_valid
*25 pattern_match[0]
*26 pattern_match[1]
*27 pattern_match[2]
*28 pattern_match[3]
*29 rst_n
*32 _000_
*33 _001_
*34 _002_
*35 _003_
*36 _004_
*37 _005_
*38 _006_
*39 _007_
*40 _008_
*41 _009_
*42 _010_
*43 _011_
*44 _012_
*45 _013_
*46 _014_
*47 _015_
*48 _016_
*49 _017_
*50 _018_
*51 _019_
*52 _020_
*53 _021_
*54 _022_
*55 _023_
*56 _024_
*57 _025_
*58 _026_
*59 _027_
*60 _028_
*61 _029_
*62 _030_
*63 _031_
*64 _032_
*65 _033_
*66 _034_
*67 _035_
*68 _036_
*69 _037_
*70 _038_
*71 _039_
*72 _040_
*73 _041_
*74 _042_
*75 _043_
*76 _044_
*77 _045_
*78 _046_
*79 _047_
*80 _048_
*81 _049_
*82 _050_
*83 _051_
*84 _052_
*85 _053_
*86 _054_
*87 _055_
*88 _056_
*89 _057_
*90 _058_
*91 _059_
*92 _060_
*93 _061_
*94 _062_
*95 _063_
*96 _064_
*97 _065_
*98 _066_
*99 _067_
*100 _068_
*101 _069_
*102 _070_
*103 _071_
*104 _072_
*105 _073_
*106 _074_
*107 _075_
*108 _076_
*109 _077_
*110 _078_
*111 _079_
*112 _080_
*113 _081_
*114 _082_
*115 _083_
*116 _084_
*117 _085_
*118 _086_
*119 _087_
*120 _088_
*121 _089_
*122 _090_
*123 _091_
*124 _092_
*125 _093_
*126 _094_
*127 _095_
*128 _096_
*129 _097_
*130 _098_
*131 _099_
*132 _100_
*133 _101_
*134 _102_
*135 _103_
*136 _104_
*137 _105_
*138 _106_
*139 _107_
*140 _108_
*141 _109_
*142 _110_
*143 _111_
*144 _112_
*145 _113_
*146 _114_
*147 _115_
*148 _116_
*149 _117_
*150 _118_
*151 _119_
*152 _120_
*153 _121_
*154 _122_
*155 _123_
*156 _124_
*157 _125_
*158 _126_
*159 _127_
*160 _128_
*161 _129_
*162 _130_
*163 _131_
*164 _132_
*165 _133_
*166 _134_
*167 _135_
*168 _136_
*169 _137_
*170 _138_
*171 _139_
*172 _140_
*173 _141_
*174 _142_
*175 _143_
*176 _144_
*177 _145_
*178 _146_
*179 _147_
*180 _148_
*181 _149_
*182 _150_
*183 _151_
*184 _152_
*185 _153_
*186 _154_
*187 _155_
*188 _156_
*189 _157_
*190 _158_
*191 _159_
*192 _160_
*193 _161_
*194 _162_
*195 _163_
*196 _164_
*197 _165_
*198 _166_
*199 _167_
*200 _168_
*201 _169_
*202 _170_
*203 _171_
*204 _172_
*205 _173_
*206 _174_
*207 _175_
*208 _176_
*209 _177_
*210 _178_
*211 _179_
*212 _180_
*213 _181_
*214 _182_
*215 _183_
*216 _184_
*217 _185_
*218 _186_
*219 _187_
*220 _188_
*221 _189_
*222 _190_
*223 _191_
*224 _192_
*225 _193_
*226 _194_
*227 _195_
*228 _196_
*229 _197_
*230 _198_
*231 _199_
*232 _200_
*233 _201_
*234 _202_
*235 _203_
*236 _204_
*237 _205_
*238 _206_
*239 _207_
*240 _208_
*241 _209_
*242 _210_
*243 _211_
*244 _212_
*245 _213_
*246 _214_
*247 _215_
*248 _216_
*249 _217_
*250 _218_
*251 _219_
*252 _220_
*253 _221_
*254 _222_
*255 _223_
*256 _224_
*257 _225_
*258 _226_
*259 _227_
*260 _228_
*261 _229_
*262 _230_
*263 _231_
*264 _232_
*265 _233_
*266 _234_
*267 _235_
*268 _236_
*269 _237_
*270 _238_
*271 _239_
*272 _240_
*273 clknet_0_clk
*274 clknet_3_0__leaf_clk
*275 clknet_3_1__leaf_clk
*276 clknet_3_2__leaf_clk
*277 clknet_3_3__leaf_clk
*278 clknet_3_4__leaf_clk
*279 clknet_3_5__leaf_clk
*280 clknet_3_6__leaf_clk
*281 clknet_3_7__leaf_clk
*282 enabled\[0\]
*283 enabled\[1\]
*284 enabled\[2\]
*285 enabled\[3\]
*286 masks\[0\]\[0\]
*287 masks\[0\]\[1\]
*288 masks\[0\]\[2\]
*289 masks\[0\]\[3\]
*290 masks\[0\]\[4\]
*291 masks\[0\]\[5\]
*292 masks\[0\]\[6\]
*293 masks\[0\]\[7\]
*294 masks\[1\]\[0\]
*295 masks\[1\]\[1\]
*296 masks\[1\]\[2\]
*297 masks\[1\]\[3\]
*298 masks\[1\]\[4\]
*299 masks\[1\]\[5\]
*300 masks\[1\]\[6\]
*301 masks\[1\]\[7\]
*302 masks\[2\]\[0\]
*303 masks\[2\]\[1\]
*304 masks\[2\]\[2\]
*305 masks\[2\]\[3\]
*306 masks\[2\]\[4\]
*307 masks\[2\]\[5\]
*308 masks\[2\]\[6\]
*309 masks\[2\]\[7\]
*310 masks\[3\]\[0\]
*311 masks\[3\]\[1\]
*312 masks\[3\]\[2\]
*313 masks\[3\]\[3\]
*314 masks\[3\]\[4\]
*315 masks\[3\]\[5\]
*316 masks\[3\]\[6\]
*317 masks\[3\]\[7\]
*318 net1
*319 net10
*320 net11
*321 net12
*322 net13
*323 net14
*324 net15
*325 net16
*326 net17
*327 net18
*328 net19
*329 net2
*330 net20
*331 net21
*332 net22
*333 net23
*334 net24
*335 net25
*336 net26
*337 net27
*338 net28
*339 net29
*340 net3
*341 net30
*342 net31
*343 net32
*344 net33
*345 net34
*346 net35
*347 net36
*348 net37
*349 net38
*350 net39
*351 net4
*352 net40
*353 net41
*354 net42
*355 net43
*356 net44
*357 net45
*358 net46
*359 net47
*360 net48
*361 net49
*362 net5
*363 net50
*364 net51
*365 net52
*366 net53
*367 net54
*368 net55
*369 net56
*370 net57
*371 net58
*372 net59
*373 net6
*374 net60
*375 net61
*376 net62
*377 net63
*378 net64
*379 net65
*380 net66
*381 net67
*382 net68
*383 net69
*384 net7
*385 net70
*386 net71
*387 net72
*388 net73
*389 net8
*390 net9
*391 patterns\[0\]\[0\]
*392 patterns\[0\]\[1\]
*393 patterns\[0\]\[2\]
*394 patterns\[0\]\[3\]
*395 patterns\[0\]\[4\]
*396 patterns\[0\]\[5\]
*397 patterns\[0\]\[6\]
*398 patterns\[0\]\[7\]
*399 patterns\[1\]\[0\]
*400 patterns\[1\]\[1\]
*401 patterns\[1\]\[2\]
*402 patterns\[1\]\[3\]
*403 patterns\[1\]\[4\]
*404 patterns\[1\]\[5\]
*405 patterns\[1\]\[6\]
*406 patterns\[1\]\[7\]
*407 patterns\[2\]\[0\]
*408 patterns\[2\]\[1\]
*409 patterns\[2\]\[2\]
*410 patterns\[2\]\[3\]
*411 patterns\[2\]\[4\]
*412 patterns\[2\]\[5\]
*413 patterns\[2\]\[6\]
*414 patterns\[2\]\[7\]
*415 patterns\[3\]\[0\]
*416 patterns\[3\]\[1\]
*417 patterns\[3\]\[2\]
*418 patterns\[3\]\[3\]
*419 patterns\[3\]\[4\]
*420 patterns\[3\]\[5\]
*421 patterns\[3\]\[6\]
*422 patterns\[3\]\[7\]
*423 shift_reg\[0\]
*424 shift_reg\[1\]
*425 shift_reg\[2\]
*426 shift_reg\[3\]
*427 shift_reg\[4\]
*428 shift_reg\[5\]
*429 shift_reg\[6\]
*430 shift_reg\[7\]
*431 FILLER_0_0_109
*432 FILLER_0_0_113
*433 FILLER_0_0_125
*434 FILLER_0_0_131
*435 FILLER_0_0_135
*436 FILLER_0_0_139
*437 FILLER_0_0_141
*438 FILLER_0_0_153
*439 FILLER_0_0_165
*440 FILLER_0_0_169
*441 FILLER_0_0_17
*442 FILLER_0_0_181
*443 FILLER_0_0_187
*444 FILLER_0_0_194
*445 FILLER_0_0_197
*446 FILLER_0_0_209
*447 FILLER_0_0_221
*448 FILLER_0_0_225
*449 FILLER_0_0_237
*450 FILLER_0_0_243
*451 FILLER_0_0_248
*452 FILLER_0_0_25
*453 FILLER_0_0_253
*454 FILLER_0_0_265
*455 FILLER_0_0_277
*456 FILLER_0_0_281
*457 FILLER_0_0_29
*458 FILLER_0_0_293
*459 FILLER_0_0_305
*460 FILLER_0_0_313
*461 FILLER_0_0_325
*462 FILLER_0_0_333
*463 FILLER_0_0_337
*464 FILLER_0_0_41
*465 FILLER_0_0_53
*466 FILLER_0_0_57
*467 FILLER_0_0_7
*468 FILLER_0_0_73
*469 FILLER_0_0_81
*470 FILLER_0_0_85
*471 FILLER_0_0_97
*472 FILLER_0_10_109
*473 FILLER_0_10_121
*474 FILLER_0_10_133
*475 FILLER_0_10_139
*476 FILLER_0_10_141
*477 FILLER_0_10_15
*478 FILLER_0_10_153
*479 FILLER_0_10_165
*480 FILLER_0_10_177
*481 FILLER_0_10_189
*482 FILLER_0_10_195
*483 FILLER_0_10_197
*484 FILLER_0_10_209
*485 FILLER_0_10_221
*486 FILLER_0_10_233
*487 FILLER_0_10_245
*488 FILLER_0_10_251
*489 FILLER_0_10_253
*490 FILLER_0_10_265
*491 FILLER_0_10_27
*492 FILLER_0_10_277
*493 FILLER_0_10_289
*494 FILLER_0_10_29
*495 FILLER_0_10_3
*496 FILLER_0_10_301
*497 FILLER_0_10_307
*498 FILLER_0_10_309
*499 FILLER_0_10_321
*500 FILLER_0_10_333
*501 FILLER_0_10_341
*502 FILLER_0_10_41
*503 FILLER_0_10_53
*504 FILLER_0_10_65
*505 FILLER_0_10_77
*506 FILLER_0_10_83
*507 FILLER_0_10_85
*508 FILLER_0_10_97
*509 FILLER_0_11_105
*510 FILLER_0_11_111
*511 FILLER_0_11_113
*512 FILLER_0_11_125
*513 FILLER_0_11_137
*514 FILLER_0_11_149
*515 FILLER_0_11_15
*516 FILLER_0_11_161
*517 FILLER_0_11_167
*518 FILLER_0_11_169
*519 FILLER_0_11_181
*520 FILLER_0_11_193
*521 FILLER_0_11_205
*522 FILLER_0_11_217
*523 FILLER_0_11_223
*524 FILLER_0_11_225
*525 FILLER_0_11_237
*526 FILLER_0_11_249
*527 FILLER_0_11_261
*528 FILLER_0_11_27
*529 FILLER_0_11_273
*530 FILLER_0_11_279
*531 FILLER_0_11_281
*532 FILLER_0_11_293
*533 FILLER_0_11_3
*534 FILLER_0_11_305
*535 FILLER_0_11_317
*536 FILLER_0_11_329
*537 FILLER_0_11_335
*538 FILLER_0_11_337
*539 FILLER_0_11_343
*540 FILLER_0_11_39
*541 FILLER_0_11_51
*542 FILLER_0_11_55
*543 FILLER_0_11_57
*544 FILLER_0_11_69
*545 FILLER_0_11_81
*546 FILLER_0_11_93
*547 FILLER_0_12_118
*548 FILLER_0_12_130
*549 FILLER_0_12_138
*550 FILLER_0_12_141
*551 FILLER_0_12_15
*552 FILLER_0_12_153
*553 FILLER_0_12_165
*554 FILLER_0_12_177
*555 FILLER_0_12_189
*556 FILLER_0_12_195
*557 FILLER_0_12_197
*558 FILLER_0_12_209
*559 FILLER_0_12_221
*560 FILLER_0_12_233
*561 FILLER_0_12_245
*562 FILLER_0_12_251
*563 FILLER_0_12_253
*564 FILLER_0_12_265
*565 FILLER_0_12_27
*566 FILLER_0_12_277
*567 FILLER_0_12_289
*568 FILLER_0_12_29
*569 FILLER_0_12_3
*570 FILLER_0_12_301
*571 FILLER_0_12_307
*572 FILLER_0_12_309
*573 FILLER_0_12_321
*574 FILLER_0_12_333
*575 FILLER_0_12_341
*576 FILLER_0_12_41
*577 FILLER_0_12_53
*578 FILLER_0_12_65
*579 FILLER_0_12_77
*580 FILLER_0_12_83
*581 FILLER_0_12_85
*582 FILLER_0_12_97
*583 FILLER_0_13_126
*584 FILLER_0_13_15
*585 FILLER_0_13_160
*586 FILLER_0_13_169
*587 FILLER_0_13_195
*588 FILLER_0_13_207
*589 FILLER_0_13_219
*590 FILLER_0_13_223
*591 FILLER_0_13_225
*592 FILLER_0_13_237
*593 FILLER_0_13_249
*594 FILLER_0_13_261
*595 FILLER_0_13_27
*596 FILLER_0_13_273
*597 FILLER_0_13_279
*598 FILLER_0_13_281
*599 FILLER_0_13_293
*600 FILLER_0_13_3
*601 FILLER_0_13_305
*602 FILLER_0_13_317
*603 FILLER_0_13_329
*604 FILLER_0_13_335
*605 FILLER_0_13_337
*606 FILLER_0_13_343
*607 FILLER_0_13_39
*608 FILLER_0_13_51
*609 FILLER_0_13_55
*610 FILLER_0_13_57
*611 FILLER_0_13_69
*612 FILLER_0_13_95
*613 FILLER_0_13_99
*614 FILLER_0_14_107
*615 FILLER_0_14_117
*616 FILLER_0_14_126
*617 FILLER_0_14_15
*618 FILLER_0_14_161
*619 FILLER_0_14_205
*620 FILLER_0_14_217
*621 FILLER_0_14_225
*622 FILLER_0_14_237
*623 FILLER_0_14_249
*624 FILLER_0_14_253
*625 FILLER_0_14_265
*626 FILLER_0_14_27
*627 FILLER_0_14_277
*628 FILLER_0_14_289
*629 FILLER_0_14_29
*630 FILLER_0_14_3
*631 FILLER_0_14_301
*632 FILLER_0_14_307
*633 FILLER_0_14_309
*634 FILLER_0_14_321
*635 FILLER_0_14_333
*636 FILLER_0_14_341
*637 FILLER_0_14_41
*638 FILLER_0_14_53
*639 FILLER_0_14_61
*640 FILLER_0_14_85
*641 FILLER_0_15_101
*642 FILLER_0_15_109
*643 FILLER_0_15_113
*644 FILLER_0_15_125
*645 FILLER_0_15_137
*646 FILLER_0_15_143
*647 FILLER_0_15_15
*648 FILLER_0_15_161
*649 FILLER_0_15_167
*650 FILLER_0_15_169
*651 FILLER_0_15_181
*652 FILLER_0_15_211
*653 FILLER_0_15_219
*654 FILLER_0_15_253
*655 FILLER_0_15_259
*656 FILLER_0_15_27
*657 FILLER_0_15_281
*658 FILLER_0_15_293
*659 FILLER_0_15_3
*660 FILLER_0_15_305
*661 FILLER_0_15_317
*662 FILLER_0_15_329
*663 FILLER_0_15_335
*664 FILLER_0_15_337
*665 FILLER_0_15_343
*666 FILLER_0_15_39
*667 FILLER_0_15_51
*668 FILLER_0_15_55
*669 FILLER_0_15_57
*670 FILLER_0_15_69
*671 FILLER_0_15_80
*672 FILLER_0_16_109
*673 FILLER_0_16_121
*674 FILLER_0_16_133
*675 FILLER_0_16_139
*676 FILLER_0_16_141
*677 FILLER_0_16_15
*678 FILLER_0_16_153
*679 FILLER_0_16_179
*680 FILLER_0_16_191
*681 FILLER_0_16_195
*682 FILLER_0_16_197
*683 FILLER_0_16_205
*684 FILLER_0_16_218
*685 FILLER_0_16_250
*686 FILLER_0_16_253
*687 FILLER_0_16_27
*688 FILLER_0_16_280
*689 FILLER_0_16_29
*690 FILLER_0_16_292
*691 FILLER_0_16_3
*692 FILLER_0_16_304
*693 FILLER_0_16_309
*694 FILLER_0_16_321
*695 FILLER_0_16_333
*696 FILLER_0_16_341
*697 FILLER_0_16_41
*698 FILLER_0_16_53
*699 FILLER_0_16_65
*700 FILLER_0_16_77
*701 FILLER_0_16_83
*702 FILLER_0_16_85
*703 FILLER_0_16_97
*704 FILLER_0_17_100
*705 FILLER_0_17_133
*706 FILLER_0_17_145
*707 FILLER_0_17_15
*708 FILLER_0_17_157
*709 FILLER_0_17_169
*710 FILLER_0_17_181
*711 FILLER_0_17_193
*712 FILLER_0_17_221
*713 FILLER_0_17_225
*714 FILLER_0_17_238
*715 FILLER_0_17_247
*716 FILLER_0_17_259
*717 FILLER_0_17_27
*718 FILLER_0_17_278
*719 FILLER_0_17_281
*720 FILLER_0_17_293
*721 FILLER_0_17_3
*722 FILLER_0_17_305
*723 FILLER_0_17_317
*724 FILLER_0_17_329
*725 FILLER_0_17_335
*726 FILLER_0_17_337
*727 FILLER_0_17_343
*728 FILLER_0_17_39
*729 FILLER_0_17_51
*730 FILLER_0_17_55
*731 FILLER_0_17_57
*732 FILLER_0_17_69
*733 FILLER_0_17_76
*734 FILLER_0_17_88
*735 FILLER_0_18_110
*736 FILLER_0_18_138
*737 FILLER_0_18_145
*738 FILLER_0_18_15
*739 FILLER_0_18_157
*740 FILLER_0_18_182
*741 FILLER_0_18_194
*742 FILLER_0_18_197
*743 FILLER_0_18_201
*744 FILLER_0_18_206
*745 FILLER_0_18_214
*746 FILLER_0_18_225
*747 FILLER_0_18_237
*748 FILLER_0_18_249
*749 FILLER_0_18_253
*750 FILLER_0_18_265
*751 FILLER_0_18_27
*752 FILLER_0_18_283
*753 FILLER_0_18_29
*754 FILLER_0_18_295
*755 FILLER_0_18_3
*756 FILLER_0_18_307
*757 FILLER_0_18_309
*758 FILLER_0_18_321
*759 FILLER_0_18_333
*760 FILLER_0_18_339
*761 FILLER_0_18_41
*762 FILLER_0_18_53
*763 FILLER_0_18_59
*764 FILLER_0_18_63
*765 FILLER_0_18_98
*766 FILLER_0_19_106
*767 FILLER_0_19_113
*768 FILLER_0_19_130
*769 FILLER_0_19_139
*770 FILLER_0_19_146
*771 FILLER_0_19_15
*772 FILLER_0_19_158
*773 FILLER_0_19_163
*774 FILLER_0_19_167
*775 FILLER_0_19_169
*776 FILLER_0_19_181
*777 FILLER_0_19_193
*778 FILLER_0_19_217
*779 FILLER_0_19_223
*780 FILLER_0_19_225
*781 FILLER_0_19_237
*782 FILLER_0_19_249
*783 FILLER_0_19_261
*784 FILLER_0_19_27
*785 FILLER_0_19_273
*786 FILLER_0_19_279
*787 FILLER_0_19_281
*788 FILLER_0_19_293
*789 FILLER_0_19_3
*790 FILLER_0_19_305
*791 FILLER_0_19_317
*792 FILLER_0_19_329
*793 FILLER_0_19_335
*794 FILLER_0_19_337
*795 FILLER_0_19_343
*796 FILLER_0_19_39
*797 FILLER_0_19_51
*798 FILLER_0_19_55
*799 FILLER_0_19_77
*800 FILLER_0_19_81
*801 FILLER_0_19_86
*802 FILLER_0_19_93
*803 FILLER_0_19_99
*804 FILLER_0_1_105
*805 FILLER_0_1_111
*806 FILLER_0_1_113
*807 FILLER_0_1_125
*808 FILLER_0_1_137
*809 FILLER_0_1_149
*810 FILLER_0_1_15
*811 FILLER_0_1_161
*812 FILLER_0_1_167
*813 FILLER_0_1_169
*814 FILLER_0_1_181
*815 FILLER_0_1_193
*816 FILLER_0_1_205
*817 FILLER_0_1_217
*818 FILLER_0_1_223
*819 FILLER_0_1_225
*820 FILLER_0_1_237
*821 FILLER_0_1_249
*822 FILLER_0_1_261
*823 FILLER_0_1_27
*824 FILLER_0_1_273
*825 FILLER_0_1_279
*826 FILLER_0_1_281
*827 FILLER_0_1_293
*828 FILLER_0_1_3
*829 FILLER_0_1_305
*830 FILLER_0_1_317
*831 FILLER_0_1_329
*832 FILLER_0_1_335
*833 FILLER_0_1_337
*834 FILLER_0_1_39
*835 FILLER_0_1_51
*836 FILLER_0_1_55
*837 FILLER_0_1_57
*838 FILLER_0_1_69
*839 FILLER_0_1_81
*840 FILLER_0_1_93
*841 FILLER_0_20_102
*842 FILLER_0_20_110
*843 FILLER_0_20_115
*844 FILLER_0_20_125
*845 FILLER_0_20_137
*846 FILLER_0_20_141
*847 FILLER_0_20_15
*848 FILLER_0_20_153
*849 FILLER_0_20_183
*850 FILLER_0_20_191
*851 FILLER_0_20_197
*852 FILLER_0_20_209
*853 FILLER_0_20_230
*854 FILLER_0_20_237
*855 FILLER_0_20_249
*856 FILLER_0_20_253
*857 FILLER_0_20_265
*858 FILLER_0_20_27
*859 FILLER_0_20_29
*860 FILLER_0_20_296
*861 FILLER_0_20_3
*862 FILLER_0_20_309
*863 FILLER_0_20_321
*864 FILLER_0_20_333
*865 FILLER_0_20_341
*866 FILLER_0_20_41
*867 FILLER_0_20_53
*868 FILLER_0_20_74
*869 FILLER_0_20_82
*870 FILLER_0_20_91
*871 FILLER_0_20_95
*872 FILLER_0_21_113
*873 FILLER_0_21_125
*874 FILLER_0_21_137
*875 FILLER_0_21_15
*876 FILLER_0_21_152
*877 FILLER_0_21_164
*878 FILLER_0_21_175
*879 FILLER_0_21_187
*880 FILLER_0_21_195
*881 FILLER_0_21_211
*882 FILLER_0_21_223
*883 FILLER_0_21_225
*884 FILLER_0_21_27
*885 FILLER_0_21_279
*886 FILLER_0_21_3
*887 FILLER_0_21_307
*888 FILLER_0_21_319
*889 FILLER_0_21_331
*890 FILLER_0_21_335
*891 FILLER_0_21_337
*892 FILLER_0_21_343
*893 FILLER_0_21_39
*894 FILLER_0_21_51
*895 FILLER_0_21_55
*896 FILLER_0_21_57
*897 FILLER_0_21_89
*898 FILLER_0_22_109
*899 FILLER_0_22_121
*900 FILLER_0_22_133
*901 FILLER_0_22_139
*902 FILLER_0_22_141
*903 FILLER_0_22_15
*904 FILLER_0_22_153
*905 FILLER_0_22_165
*906 FILLER_0_22_177
*907 FILLER_0_22_189
*908 FILLER_0_22_195
*909 FILLER_0_22_197
*910 FILLER_0_22_209
*911 FILLER_0_22_221
*912 FILLER_0_22_262
*913 FILLER_0_22_27
*914 FILLER_0_22_29
*915 FILLER_0_22_298
*916 FILLER_0_22_3
*917 FILLER_0_22_306
*918 FILLER_0_22_309
*919 FILLER_0_22_321
*920 FILLER_0_22_333
*921 FILLER_0_22_341
*922 FILLER_0_22_41
*923 FILLER_0_22_53
*924 FILLER_0_22_65
*925 FILLER_0_22_77
*926 FILLER_0_22_83
*927 FILLER_0_22_85
*928 FILLER_0_22_97
*929 FILLER_0_23_105
*930 FILLER_0_23_111
*931 FILLER_0_23_133
*932 FILLER_0_23_145
*933 FILLER_0_23_157
*934 FILLER_0_23_169
*935 FILLER_0_23_179
*936 FILLER_0_23_18
*937 FILLER_0_23_191
*938 FILLER_0_23_203
*939 FILLER_0_23_215
*940 FILLER_0_23_223
*941 FILLER_0_23_225
*942 FILLER_0_23_229
*943 FILLER_0_23_248
*944 FILLER_0_23_260
*945 FILLER_0_23_272
*946 FILLER_0_23_281
*947 FILLER_0_23_293
*948 FILLER_0_23_30
*949 FILLER_0_23_305
*950 FILLER_0_23_317
*951 FILLER_0_23_329
*952 FILLER_0_23_335
*953 FILLER_0_23_337
*954 FILLER_0_23_343
*955 FILLER_0_23_42
*956 FILLER_0_23_54
*957 FILLER_0_23_57
*958 FILLER_0_23_6
*959 FILLER_0_23_69
*960 FILLER_0_23_81
*961 FILLER_0_23_93
*962 FILLER_0_24_101
*963 FILLER_0_24_137
*964 FILLER_0_24_148
*965 FILLER_0_24_15
*966 FILLER_0_24_160
*967 FILLER_0_24_182
*968 FILLER_0_24_193
*969 FILLER_0_24_206
*970 FILLER_0_24_218
*971 FILLER_0_24_236
*972 FILLER_0_24_248
*973 FILLER_0_24_253
*974 FILLER_0_24_265
*975 FILLER_0_24_27
*976 FILLER_0_24_277
*977 FILLER_0_24_289
*978 FILLER_0_24_29
*979 FILLER_0_24_3
*980 FILLER_0_24_301
*981 FILLER_0_24_307
*982 FILLER_0_24_309
*983 FILLER_0_24_321
*984 FILLER_0_24_333
*985 FILLER_0_24_341
*986 FILLER_0_24_41
*987 FILLER_0_24_53
*988 FILLER_0_24_61
*989 FILLER_0_24_82
*990 FILLER_0_24_95
*991 FILLER_0_25_111
*992 FILLER_0_25_128
*993 FILLER_0_25_15
*994 FILLER_0_25_151
*995 FILLER_0_25_163
*996 FILLER_0_25_167
*997 FILLER_0_25_169
*998 FILLER_0_25_177
*999 FILLER_0_25_184
*1000 FILLER_0_25_213
*1001 FILLER_0_25_221
*1002 FILLER_0_25_225
*1003 FILLER_0_25_237
*1004 FILLER_0_25_249
*1005 FILLER_0_25_261
*1006 FILLER_0_25_27
*1007 FILLER_0_25_273
*1008 FILLER_0_25_279
*1009 FILLER_0_25_281
*1010 FILLER_0_25_293
*1011 FILLER_0_25_3
*1012 FILLER_0_25_305
*1013 FILLER_0_25_317
*1014 FILLER_0_25_329
*1015 FILLER_0_25_335
*1016 FILLER_0_25_337
*1017 FILLER_0_25_343
*1018 FILLER_0_25_39
*1019 FILLER_0_25_51
*1020 FILLER_0_25_55
*1021 FILLER_0_25_57
*1022 FILLER_0_25_65
*1023 FILLER_0_25_91
*1024 FILLER_0_25_99
*1025 FILLER_0_26_102
*1026 FILLER_0_26_108
*1027 FILLER_0_26_112
*1028 FILLER_0_26_122
*1029 FILLER_0_26_139
*1030 FILLER_0_26_144
*1031 FILLER_0_26_15
*1032 FILLER_0_26_156
*1033 FILLER_0_26_168
*1034 FILLER_0_26_178
*1035 FILLER_0_26_190
*1036 FILLER_0_26_197
*1037 FILLER_0_26_209
*1038 FILLER_0_26_221
*1039 FILLER_0_26_233
*1040 FILLER_0_26_245
*1041 FILLER_0_26_251
*1042 FILLER_0_26_27
*1043 FILLER_0_26_276
*1044 FILLER_0_26_288
*1045 FILLER_0_26_29
*1046 FILLER_0_26_299
*1047 FILLER_0_26_3
*1048 FILLER_0_26_307
*1049 FILLER_0_26_309
*1050 FILLER_0_26_321
*1051 FILLER_0_26_333
*1052 FILLER_0_26_341
*1053 FILLER_0_26_41
*1054 FILLER_0_26_67
*1055 FILLER_0_26_73
*1056 FILLER_0_26_83
*1057 FILLER_0_27_105
*1058 FILLER_0_27_111
*1059 FILLER_0_27_113
*1060 FILLER_0_27_125
*1061 FILLER_0_27_137
*1062 FILLER_0_27_149
*1063 FILLER_0_27_15
*1064 FILLER_0_27_161
*1065 FILLER_0_27_167
*1066 FILLER_0_27_169
*1067 FILLER_0_27_181
*1068 FILLER_0_27_206
*1069 FILLER_0_27_218
*1070 FILLER_0_27_225
*1071 FILLER_0_27_237
*1072 FILLER_0_27_241
*1073 FILLER_0_27_265
*1074 FILLER_0_27_27
*1075 FILLER_0_27_277
*1076 FILLER_0_27_281
*1077 FILLER_0_27_3
*1078 FILLER_0_27_314
*1079 FILLER_0_27_326
*1080 FILLER_0_27_334
*1081 FILLER_0_27_337
*1082 FILLER_0_27_343
*1083 FILLER_0_27_39
*1084 FILLER_0_27_51
*1085 FILLER_0_27_57
*1086 FILLER_0_27_68
*1087 FILLER_0_27_76
*1088 FILLER_0_27_81
*1089 FILLER_0_27_93
*1090 FILLER_0_28_109
*1091 FILLER_0_28_121
*1092 FILLER_0_28_133
*1093 FILLER_0_28_15
*1094 FILLER_0_28_154
*1095 FILLER_0_28_166
*1096 FILLER_0_28_178
*1097 FILLER_0_28_187
*1098 FILLER_0_28_195
*1099 FILLER_0_28_197
*1100 FILLER_0_28_209
*1101 FILLER_0_28_233
*1102 FILLER_0_28_245
*1103 FILLER_0_28_262
*1104 FILLER_0_28_27
*1105 FILLER_0_28_274
*1106 FILLER_0_28_286
*1107 FILLER_0_28_29
*1108 FILLER_0_28_3
*1109 FILLER_0_28_309
*1110 FILLER_0_28_321
*1111 FILLER_0_28_333
*1112 FILLER_0_28_337
*1113 FILLER_0_28_41
*1114 FILLER_0_28_53
*1115 FILLER_0_28_65
*1116 FILLER_0_28_77
*1117 FILLER_0_28_83
*1118 FILLER_0_28_85
*1119 FILLER_0_28_97
*1120 FILLER_0_29_102
*1121 FILLER_0_29_110
*1122 FILLER_0_29_113
*1123 FILLER_0_29_126
*1124 FILLER_0_29_138
*1125 FILLER_0_29_15
*1126 FILLER_0_29_150
*1127 FILLER_0_29_162
*1128 FILLER_0_29_180
*1129 FILLER_0_29_196
*1130 FILLER_0_29_237
*1131 FILLER_0_29_249
*1132 FILLER_0_29_264
*1133 FILLER_0_29_27
*1134 FILLER_0_29_276
*1135 FILLER_0_29_281
*1136 FILLER_0_29_3
*1137 FILLER_0_29_303
*1138 FILLER_0_29_315
*1139 FILLER_0_29_327
*1140 FILLER_0_29_335
*1141 FILLER_0_29_337
*1142 FILLER_0_29_343
*1143 FILLER_0_29_39
*1144 FILLER_0_29_51
*1145 FILLER_0_29_55
*1146 FILLER_0_29_57
*1147 FILLER_0_29_69
*1148 FILLER_0_29_77
*1149 FILLER_0_29_90
*1150 FILLER_0_2_109
*1151 FILLER_0_2_121
*1152 FILLER_0_2_133
*1153 FILLER_0_2_139
*1154 FILLER_0_2_141
*1155 FILLER_0_2_153
*1156 FILLER_0_2_165
*1157 FILLER_0_2_177
*1158 FILLER_0_2_18
*1159 FILLER_0_2_189
*1160 FILLER_0_2_195
*1161 FILLER_0_2_197
*1162 FILLER_0_2_209
*1163 FILLER_0_2_221
*1164 FILLER_0_2_233
*1165 FILLER_0_2_245
*1166 FILLER_0_2_251
*1167 FILLER_0_2_253
*1168 FILLER_0_2_26
*1169 FILLER_0_2_265
*1170 FILLER_0_2_277
*1171 FILLER_0_2_289
*1172 FILLER_0_2_29
*1173 FILLER_0_2_301
*1174 FILLER_0_2_307
*1175 FILLER_0_2_309
*1176 FILLER_0_2_321
*1177 FILLER_0_2_333
*1178 FILLER_0_2_341
*1179 FILLER_0_2_41
*1180 FILLER_0_2_53
*1181 FILLER_0_2_6
*1182 FILLER_0_2_65
*1183 FILLER_0_2_77
*1184 FILLER_0_2_83
*1185 FILLER_0_2_85
*1186 FILLER_0_2_97
*1187 FILLER_0_30_104
*1188 FILLER_0_30_110
*1189 FILLER_0_30_139
*1190 FILLER_0_30_141
*1191 FILLER_0_30_15
*1192 FILLER_0_30_168
*1193 FILLER_0_30_189
*1194 FILLER_0_30_195
*1195 FILLER_0_30_197
*1196 FILLER_0_30_209
*1197 FILLER_0_30_234
*1198 FILLER_0_30_246
*1199 FILLER_0_30_253
*1200 FILLER_0_30_268
*1201 FILLER_0_30_27
*1202 FILLER_0_30_277
*1203 FILLER_0_30_289
*1204 FILLER_0_30_29
*1205 FILLER_0_30_294
*1206 FILLER_0_30_3
*1207 FILLER_0_30_306
*1208 FILLER_0_30_309
*1209 FILLER_0_30_321
*1210 FILLER_0_30_329
*1211 FILLER_0_30_333
*1212 FILLER_0_30_341
*1213 FILLER_0_30_41
*1214 FILLER_0_30_53
*1215 FILLER_0_30_65
*1216 FILLER_0_30_76
*1217 FILLER_0_30_92
*1218 FILLER_0_31_107
*1219 FILLER_0_31_111
*1220 FILLER_0_31_113
*1221 FILLER_0_31_118
*1222 FILLER_0_31_130
*1223 FILLER_0_31_142
*1224 FILLER_0_31_15
*1225 FILLER_0_31_150
*1226 FILLER_0_31_160
*1227 FILLER_0_31_177
*1228 FILLER_0_31_187
*1229 FILLER_0_31_199
*1230 FILLER_0_31_211
*1231 FILLER_0_31_220
*1232 FILLER_0_31_235
*1233 FILLER_0_31_247
*1234 FILLER_0_31_27
*1235 FILLER_0_31_274
*1236 FILLER_0_31_281
*1237 FILLER_0_31_293
*1238 FILLER_0_31_3
*1239 FILLER_0_31_305
*1240 FILLER_0_31_317
*1241 FILLER_0_31_329
*1242 FILLER_0_31_335
*1243 FILLER_0_31_337
*1244 FILLER_0_31_343
*1245 FILLER_0_31_39
*1246 FILLER_0_31_51
*1247 FILLER_0_31_55
*1248 FILLER_0_31_57
*1249 FILLER_0_31_65
*1250 FILLER_0_31_95
*1251 FILLER_0_32_104
*1252 FILLER_0_32_116
*1253 FILLER_0_32_128
*1254 FILLER_0_32_15
*1255 FILLER_0_32_195
*1256 FILLER_0_32_201
*1257 FILLER_0_32_213
*1258 FILLER_0_32_225
*1259 FILLER_0_32_237
*1260 FILLER_0_32_249
*1261 FILLER_0_32_253
*1262 FILLER_0_32_257
*1263 FILLER_0_32_27
*1264 FILLER_0_32_273
*1265 FILLER_0_32_285
*1266 FILLER_0_32_29
*1267 FILLER_0_32_297
*1268 FILLER_0_32_3
*1269 FILLER_0_32_305
*1270 FILLER_0_32_309
*1271 FILLER_0_32_321
*1272 FILLER_0_32_333
*1273 FILLER_0_32_341
*1274 FILLER_0_32_41
*1275 FILLER_0_32_53
*1276 FILLER_0_32_59
*1277 FILLER_0_32_63
*1278 FILLER_0_32_74
*1279 FILLER_0_32_82
*1280 FILLER_0_32_85
*1281 FILLER_0_33_107
*1282 FILLER_0_33_111
*1283 FILLER_0_33_113
*1284 FILLER_0_33_124
*1285 FILLER_0_33_136
*1286 FILLER_0_33_151
*1287 FILLER_0_33_163
*1288 FILLER_0_33_167
*1289 FILLER_0_33_169
*1290 FILLER_0_33_175
*1291 FILLER_0_33_187
*1292 FILLER_0_33_199
*1293 FILLER_0_33_21
*1294 FILLER_0_33_211
*1295 FILLER_0_33_223
*1296 FILLER_0_33_225
*1297 FILLER_0_33_237
*1298 FILLER_0_33_249
*1299 FILLER_0_33_276
*1300 FILLER_0_33_281
*1301 FILLER_0_33_287
*1302 FILLER_0_33_304
*1303 FILLER_0_33_316
*1304 FILLER_0_33_328
*1305 FILLER_0_33_33
*1306 FILLER_0_33_337
*1307 FILLER_0_33_343
*1308 FILLER_0_33_45
*1309 FILLER_0_33_53
*1310 FILLER_0_33_77
*1311 FILLER_0_33_83
*1312 FILLER_0_33_9
*1313 FILLER_0_34_104
*1314 FILLER_0_34_127
*1315 FILLER_0_34_139
*1316 FILLER_0_34_141
*1317 FILLER_0_34_145
*1318 FILLER_0_34_15
*1319 FILLER_0_34_155
*1320 FILLER_0_34_167
*1321 FILLER_0_34_179
*1322 FILLER_0_34_190
*1323 FILLER_0_34_197
*1324 FILLER_0_34_209
*1325 FILLER_0_34_230
*1326 FILLER_0_34_242
*1327 FILLER_0_34_250
*1328 FILLER_0_34_253
*1329 FILLER_0_34_261
*1330 FILLER_0_34_267
*1331 FILLER_0_34_27
*1332 FILLER_0_34_279
*1333 FILLER_0_34_29
*1334 FILLER_0_34_3
*1335 FILLER_0_34_315
*1336 FILLER_0_34_327
*1337 FILLER_0_34_339
*1338 FILLER_0_34_343
*1339 FILLER_0_34_41
*1340 FILLER_0_34_53
*1341 FILLER_0_34_65
*1342 FILLER_0_34_85
*1343 FILLER_0_34_96
*1344 FILLER_0_35_116
*1345 FILLER_0_35_124
*1346 FILLER_0_35_131
*1347 FILLER_0_35_137
*1348 FILLER_0_35_15
*1349 FILLER_0_35_166
*1350 FILLER_0_35_169
*1351 FILLER_0_35_181
*1352 FILLER_0_35_193
*1353 FILLER_0_35_205
*1354 FILLER_0_35_209
*1355 FILLER_0_35_213
*1356 FILLER_0_35_223
*1357 FILLER_0_35_231
*1358 FILLER_0_35_266
*1359 FILLER_0_35_27
*1360 FILLER_0_35_278
*1361 FILLER_0_35_281
*1362 FILLER_0_35_285
*1363 FILLER_0_35_3
*1364 FILLER_0_35_315
*1365 FILLER_0_35_327
*1366 FILLER_0_35_335
*1367 FILLER_0_35_337
*1368 FILLER_0_35_343
*1369 FILLER_0_35_39
*1370 FILLER_0_35_51
*1371 FILLER_0_35_55
*1372 FILLER_0_35_57
*1373 FILLER_0_35_89
*1374 FILLER_0_36_109
*1375 FILLER_0_36_121
*1376 FILLER_0_36_129
*1377 FILLER_0_36_137
*1378 FILLER_0_36_141
*1379 FILLER_0_36_15
*1380 FILLER_0_36_153
*1381 FILLER_0_36_165
*1382 FILLER_0_36_177
*1383 FILLER_0_36_189
*1384 FILLER_0_36_195
*1385 FILLER_0_36_197
*1386 FILLER_0_36_232
*1387 FILLER_0_36_244
*1388 FILLER_0_36_253
*1389 FILLER_0_36_265
*1390 FILLER_0_36_27
*1391 FILLER_0_36_277
*1392 FILLER_0_36_289
*1393 FILLER_0_36_29
*1394 FILLER_0_36_3
*1395 FILLER_0_36_300
*1396 FILLER_0_36_317
*1397 FILLER_0_36_329
*1398 FILLER_0_36_341
*1399 FILLER_0_36_41
*1400 FILLER_0_36_53
*1401 FILLER_0_36_65
*1402 FILLER_0_36_77
*1403 FILLER_0_36_83
*1404 FILLER_0_36_85
*1405 FILLER_0_36_97
*1406 FILLER_0_37_105
*1407 FILLER_0_37_111
*1408 FILLER_0_37_113
*1409 FILLER_0_37_125
*1410 FILLER_0_37_137
*1411 FILLER_0_37_149
*1412 FILLER_0_37_15
*1413 FILLER_0_37_161
*1414 FILLER_0_37_167
*1415 FILLER_0_37_178
*1416 FILLER_0_37_189
*1417 FILLER_0_37_201
*1418 FILLER_0_37_209
*1419 FILLER_0_37_213
*1420 FILLER_0_37_223
*1421 FILLER_0_37_229
*1422 FILLER_0_37_241
*1423 FILLER_0_37_253
*1424 FILLER_0_37_265
*1425 FILLER_0_37_27
*1426 FILLER_0_37_277
*1427 FILLER_0_37_281
*1428 FILLER_0_37_293
*1429 FILLER_0_37_3
*1430 FILLER_0_37_305
*1431 FILLER_0_37_317
*1432 FILLER_0_37_329
*1433 FILLER_0_37_335
*1434 FILLER_0_37_337
*1435 FILLER_0_37_343
*1436 FILLER_0_37_39
*1437 FILLER_0_37_51
*1438 FILLER_0_37_55
*1439 FILLER_0_37_57
*1440 FILLER_0_37_69
*1441 FILLER_0_37_81
*1442 FILLER_0_37_89
*1443 FILLER_0_37_93
*1444 FILLER_0_38_102
*1445 FILLER_0_38_114
*1446 FILLER_0_38_126
*1447 FILLER_0_38_138
*1448 FILLER_0_38_141
*1449 FILLER_0_38_15
*1450 FILLER_0_38_153
*1451 FILLER_0_38_191
*1452 FILLER_0_38_195
*1453 FILLER_0_38_203
*1454 FILLER_0_38_227
*1455 FILLER_0_38_239
*1456 FILLER_0_38_262
*1457 FILLER_0_38_27
*1458 FILLER_0_38_274
*1459 FILLER_0_38_286
*1460 FILLER_0_38_29
*1461 FILLER_0_38_299
*1462 FILLER_0_38_3
*1463 FILLER_0_38_307
*1464 FILLER_0_38_309
*1465 FILLER_0_38_321
*1466 FILLER_0_38_333
*1467 FILLER_0_38_341
*1468 FILLER_0_38_41
*1469 FILLER_0_38_53
*1470 FILLER_0_38_61
*1471 FILLER_0_38_66
*1472 FILLER_0_38_76
*1473 FILLER_0_38_91
*1474 FILLER_0_39_110
*1475 FILLER_0_39_132
*1476 FILLER_0_39_144
*1477 FILLER_0_39_15
*1478 FILLER_0_39_156
*1479 FILLER_0_39_164
*1480 FILLER_0_39_193
*1481 FILLER_0_39_205
*1482 FILLER_0_39_217
*1483 FILLER_0_39_223
*1484 FILLER_0_39_225
*1485 FILLER_0_39_233
*1486 FILLER_0_39_27
*1487 FILLER_0_39_272
*1488 FILLER_0_39_281
*1489 FILLER_0_39_3
*1490 FILLER_0_39_316
*1491 FILLER_0_39_328
*1492 FILLER_0_39_337
*1493 FILLER_0_39_343
*1494 FILLER_0_39_39
*1495 FILLER_0_39_51
*1496 FILLER_0_39_55
*1497 FILLER_0_39_77
*1498 FILLER_0_3_105
*1499 FILLER_0_3_111
*1500 FILLER_0_3_113
*1501 FILLER_0_3_125
*1502 FILLER_0_3_137
*1503 FILLER_0_3_149
*1504 FILLER_0_3_15
*1505 FILLER_0_3_161
*1506 FILLER_0_3_167
*1507 FILLER_0_3_169
*1508 FILLER_0_3_181
*1509 FILLER_0_3_193
*1510 FILLER_0_3_205
*1511 FILLER_0_3_217
*1512 FILLER_0_3_223
*1513 FILLER_0_3_225
*1514 FILLER_0_3_237
*1515 FILLER_0_3_249
*1516 FILLER_0_3_261
*1517 FILLER_0_3_27
*1518 FILLER_0_3_273
*1519 FILLER_0_3_279
*1520 FILLER_0_3_281
*1521 FILLER_0_3_293
*1522 FILLER_0_3_3
*1523 FILLER_0_3_305
*1524 FILLER_0_3_317
*1525 FILLER_0_3_329
*1526 FILLER_0_3_335
*1527 FILLER_0_3_337
*1528 FILLER_0_3_343
*1529 FILLER_0_3_39
*1530 FILLER_0_3_51
*1531 FILLER_0_3_55
*1532 FILLER_0_3_57
*1533 FILLER_0_3_69
*1534 FILLER_0_3_81
*1535 FILLER_0_3_93
*1536 FILLER_0_40_100
*1537 FILLER_0_40_113
*1538 FILLER_0_40_141
*1539 FILLER_0_40_148
*1540 FILLER_0_40_15
*1541 FILLER_0_40_158
*1542 FILLER_0_40_166
*1543 FILLER_0_40_173
*1544 FILLER_0_40_185
*1545 FILLER_0_40_193
*1546 FILLER_0_40_197
*1547 FILLER_0_40_209
*1548 FILLER_0_40_221
*1549 FILLER_0_40_233
*1550 FILLER_0_40_241
*1551 FILLER_0_40_262
*1552 FILLER_0_40_27
*1553 FILLER_0_40_274
*1554 FILLER_0_40_280
*1555 FILLER_0_40_29
*1556 FILLER_0_40_3
*1557 FILLER_0_40_300
*1558 FILLER_0_40_309
*1559 FILLER_0_40_321
*1560 FILLER_0_40_333
*1561 FILLER_0_40_41
*1562 FILLER_0_40_53
*1563 FILLER_0_40_61
*1564 FILLER_0_41_109
*1565 FILLER_0_41_113
*1566 FILLER_0_41_117
*1567 FILLER_0_41_121
*1568 FILLER_0_41_129
*1569 FILLER_0_41_135
*1570 FILLER_0_41_139
*1571 FILLER_0_41_15
*1572 FILLER_0_41_160
*1573 FILLER_0_41_173
*1574 FILLER_0_41_185
*1575 FILLER_0_41_197
*1576 FILLER_0_41_209
*1577 FILLER_0_41_221
*1578 FILLER_0_41_225
*1579 FILLER_0_41_237
*1580 FILLER_0_41_261
*1581 FILLER_0_41_27
*1582 FILLER_0_41_273
*1583 FILLER_0_41_279
*1584 FILLER_0_41_281
*1585 FILLER_0_41_3
*1586 FILLER_0_41_303
*1587 FILLER_0_41_315
*1588 FILLER_0_41_327
*1589 FILLER_0_41_335
*1590 FILLER_0_41_337
*1591 FILLER_0_41_343
*1592 FILLER_0_41_39
*1593 FILLER_0_41_51
*1594 FILLER_0_41_55
*1595 FILLER_0_41_57
*1596 FILLER_0_41_69
*1597 FILLER_0_41_73
*1598 FILLER_0_41_85
*1599 FILLER_0_41_97
*1600 FILLER_0_42_109
*1601 FILLER_0_42_121
*1602 FILLER_0_42_133
*1603 FILLER_0_42_139
*1604 FILLER_0_42_141
*1605 FILLER_0_42_15
*1606 FILLER_0_42_153
*1607 FILLER_0_42_165
*1608 FILLER_0_42_177
*1609 FILLER_0_42_189
*1610 FILLER_0_42_195
*1611 FILLER_0_42_197
*1612 FILLER_0_42_209
*1613 FILLER_0_42_216
*1614 FILLER_0_42_228
*1615 FILLER_0_42_240
*1616 FILLER_0_42_253
*1617 FILLER_0_42_265
*1618 FILLER_0_42_27
*1619 FILLER_0_42_277
*1620 FILLER_0_42_285
*1621 FILLER_0_42_29
*1622 FILLER_0_42_290
*1623 FILLER_0_42_3
*1624 FILLER_0_42_302
*1625 FILLER_0_42_309
*1626 FILLER_0_42_321
*1627 FILLER_0_42_333
*1628 FILLER_0_42_341
*1629 FILLER_0_42_41
*1630 FILLER_0_42_53
*1631 FILLER_0_42_65
*1632 FILLER_0_42_77
*1633 FILLER_0_42_83
*1634 FILLER_0_42_85
*1635 FILLER_0_42_97
*1636 FILLER_0_43_105
*1637 FILLER_0_43_111
*1638 FILLER_0_43_113
*1639 FILLER_0_43_120
*1640 FILLER_0_43_126
*1641 FILLER_0_43_136
*1642 FILLER_0_43_148
*1643 FILLER_0_43_160
*1644 FILLER_0_43_169
*1645 FILLER_0_43_181
*1646 FILLER_0_43_193
*1647 FILLER_0_43_201
*1648 FILLER_0_43_21
*1649 FILLER_0_43_234
*1650 FILLER_0_43_246
*1651 FILLER_0_43_258
*1652 FILLER_0_43_270
*1653 FILLER_0_43_278
*1654 FILLER_0_43_290
*1655 FILLER_0_43_302
*1656 FILLER_0_43_314
*1657 FILLER_0_43_326
*1658 FILLER_0_43_33
*1659 FILLER_0_43_334
*1660 FILLER_0_43_337
*1661 FILLER_0_43_343
*1662 FILLER_0_43_45
*1663 FILLER_0_43_53
*1664 FILLER_0_43_57
*1665 FILLER_0_43_69
*1666 FILLER_0_43_81
*1667 FILLER_0_43_9
*1668 FILLER_0_43_93
*1669 FILLER_0_44_105
*1670 FILLER_0_44_119
*1671 FILLER_0_44_149
*1672 FILLER_0_44_15
*1673 FILLER_0_44_161
*1674 FILLER_0_44_167
*1675 FILLER_0_44_171
*1676 FILLER_0_44_192
*1677 FILLER_0_44_197
*1678 FILLER_0_44_207
*1679 FILLER_0_44_211
*1680 FILLER_0_44_240
*1681 FILLER_0_44_246
*1682 FILLER_0_44_251
*1683 FILLER_0_44_27
*1684 FILLER_0_44_270
*1685 FILLER_0_44_29
*1686 FILLER_0_44_299
*1687 FILLER_0_44_3
*1688 FILLER_0_44_307
*1689 FILLER_0_44_309
*1690 FILLER_0_44_321
*1691 FILLER_0_44_333
*1692 FILLER_0_44_341
*1693 FILLER_0_44_41
*1694 FILLER_0_44_53
*1695 FILLER_0_44_65
*1696 FILLER_0_44_77
*1697 FILLER_0_44_83
*1698 FILLER_0_45_106
*1699 FILLER_0_45_122
*1700 FILLER_0_45_142
*1701 FILLER_0_45_15
*1702 FILLER_0_45_154
*1703 FILLER_0_45_158
*1704 FILLER_0_45_169
*1705 FILLER_0_45_222
*1706 FILLER_0_45_234
*1707 FILLER_0_45_27
*1708 FILLER_0_45_278
*1709 FILLER_0_45_281
*1710 FILLER_0_45_293
*1711 FILLER_0_45_3
*1712 FILLER_0_45_305
*1713 FILLER_0_45_317
*1714 FILLER_0_45_329
*1715 FILLER_0_45_335
*1716 FILLER_0_45_337
*1717 FILLER_0_45_343
*1718 FILLER_0_45_39
*1719 FILLER_0_45_51
*1720 FILLER_0_45_55
*1721 FILLER_0_45_57
*1722 FILLER_0_45_69
*1723 FILLER_0_45_81
*1724 FILLER_0_46_113
*1725 FILLER_0_46_117
*1726 FILLER_0_46_138
*1727 FILLER_0_46_141
*1728 FILLER_0_46_15
*1729 FILLER_0_46_183
*1730 FILLER_0_46_195
*1731 FILLER_0_46_206
*1732 FILLER_0_46_210
*1733 FILLER_0_46_214
*1734 FILLER_0_46_226
*1735 FILLER_0_46_230
*1736 FILLER_0_46_239
*1737 FILLER_0_46_251
*1738 FILLER_0_46_27
*1739 FILLER_0_46_270
*1740 FILLER_0_46_282
*1741 FILLER_0_46_29
*1742 FILLER_0_46_294
*1743 FILLER_0_46_3
*1744 FILLER_0_46_306
*1745 FILLER_0_46_309
*1746 FILLER_0_46_321
*1747 FILLER_0_46_333
*1748 FILLER_0_46_341
*1749 FILLER_0_46_41
*1750 FILLER_0_46_53
*1751 FILLER_0_46_65
*1752 FILLER_0_46_77
*1753 FILLER_0_46_83
*1754 FILLER_0_46_85
*1755 FILLER_0_46_91
*1756 FILLER_0_46_95
*1757 FILLER_0_47_105
*1758 FILLER_0_47_111
*1759 FILLER_0_47_113
*1760 FILLER_0_47_121
*1761 FILLER_0_47_126
*1762 FILLER_0_47_138
*1763 FILLER_0_47_15
*1764 FILLER_0_47_150
*1765 FILLER_0_47_158
*1766 FILLER_0_47_164
*1767 FILLER_0_47_177
*1768 FILLER_0_47_189
*1769 FILLER_0_47_195
*1770 FILLER_0_47_204
*1771 FILLER_0_47_216
*1772 FILLER_0_47_225
*1773 FILLER_0_47_237
*1774 FILLER_0_47_249
*1775 FILLER_0_47_261
*1776 FILLER_0_47_27
*1777 FILLER_0_47_273
*1778 FILLER_0_47_279
*1779 FILLER_0_47_281
*1780 FILLER_0_47_293
*1781 FILLER_0_47_3
*1782 FILLER_0_47_305
*1783 FILLER_0_47_317
*1784 FILLER_0_47_329
*1785 FILLER_0_47_335
*1786 FILLER_0_47_337
*1787 FILLER_0_47_343
*1788 FILLER_0_47_39
*1789 FILLER_0_47_51
*1790 FILLER_0_47_55
*1791 FILLER_0_47_57
*1792 FILLER_0_47_69
*1793 FILLER_0_47_81
*1794 FILLER_0_47_93
*1795 FILLER_0_48_109
*1796 FILLER_0_48_121
*1797 FILLER_0_48_133
*1798 FILLER_0_48_139
*1799 FILLER_0_48_141
*1800 FILLER_0_48_15
*1801 FILLER_0_48_153
*1802 FILLER_0_48_165
*1803 FILLER_0_48_177
*1804 FILLER_0_48_189
*1805 FILLER_0_48_195
*1806 FILLER_0_48_197
*1807 FILLER_0_48_209
*1808 FILLER_0_48_221
*1809 FILLER_0_48_233
*1810 FILLER_0_48_245
*1811 FILLER_0_48_251
*1812 FILLER_0_48_253
*1813 FILLER_0_48_265
*1814 FILLER_0_48_27
*1815 FILLER_0_48_277
*1816 FILLER_0_48_289
*1817 FILLER_0_48_29
*1818 FILLER_0_48_3
*1819 FILLER_0_48_301
*1820 FILLER_0_48_307
*1821 FILLER_0_48_309
*1822 FILLER_0_48_321
*1823 FILLER_0_48_333
*1824 FILLER_0_48_341
*1825 FILLER_0_48_41
*1826 FILLER_0_48_53
*1827 FILLER_0_48_65
*1828 FILLER_0_48_77
*1829 FILLER_0_48_83
*1830 FILLER_0_48_85
*1831 FILLER_0_48_97
*1832 FILLER_0_49_105
*1833 FILLER_0_49_111
*1834 FILLER_0_49_113
*1835 FILLER_0_49_125
*1836 FILLER_0_49_137
*1837 FILLER_0_49_149
*1838 FILLER_0_49_15
*1839 FILLER_0_49_161
*1840 FILLER_0_49_167
*1841 FILLER_0_49_169
*1842 FILLER_0_49_181
*1843 FILLER_0_49_193
*1844 FILLER_0_49_205
*1845 FILLER_0_49_217
*1846 FILLER_0_49_223
*1847 FILLER_0_49_225
*1848 FILLER_0_49_237
*1849 FILLER_0_49_249
*1850 FILLER_0_49_261
*1851 FILLER_0_49_27
*1852 FILLER_0_49_273
*1853 FILLER_0_49_279
*1854 FILLER_0_49_281
*1855 FILLER_0_49_293
*1856 FILLER_0_49_3
*1857 FILLER_0_49_305
*1858 FILLER_0_49_317
*1859 FILLER_0_49_329
*1860 FILLER_0_49_335
*1861 FILLER_0_49_337
*1862 FILLER_0_49_343
*1863 FILLER_0_49_39
*1864 FILLER_0_49_51
*1865 FILLER_0_49_55
*1866 FILLER_0_49_57
*1867 FILLER_0_49_69
*1868 FILLER_0_49_81
*1869 FILLER_0_49_93
*1870 FILLER_0_4_109
*1871 FILLER_0_4_121
*1872 FILLER_0_4_133
*1873 FILLER_0_4_139
*1874 FILLER_0_4_141
*1875 FILLER_0_4_15
*1876 FILLER_0_4_153
*1877 FILLER_0_4_165
*1878 FILLER_0_4_177
*1879 FILLER_0_4_189
*1880 FILLER_0_4_195
*1881 FILLER_0_4_197
*1882 FILLER_0_4_209
*1883 FILLER_0_4_221
*1884 FILLER_0_4_233
*1885 FILLER_0_4_245
*1886 FILLER_0_4_251
*1887 FILLER_0_4_253
*1888 FILLER_0_4_265
*1889 FILLER_0_4_27
*1890 FILLER_0_4_277
*1891 FILLER_0_4_289
*1892 FILLER_0_4_29
*1893 FILLER_0_4_3
*1894 FILLER_0_4_301
*1895 FILLER_0_4_307
*1896 FILLER_0_4_309
*1897 FILLER_0_4_321
*1898 FILLER_0_4_333
*1899 FILLER_0_4_341
*1900 FILLER_0_4_41
*1901 FILLER_0_4_53
*1902 FILLER_0_4_65
*1903 FILLER_0_4_77
*1904 FILLER_0_4_83
*1905 FILLER_0_4_85
*1906 FILLER_0_4_97
*1907 FILLER_0_50_109
*1908 FILLER_0_50_121
*1909 FILLER_0_50_133
*1910 FILLER_0_50_139
*1911 FILLER_0_50_141
*1912 FILLER_0_50_15
*1913 FILLER_0_50_153
*1914 FILLER_0_50_165
*1915 FILLER_0_50_177
*1916 FILLER_0_50_189
*1917 FILLER_0_50_195
*1918 FILLER_0_50_197
*1919 FILLER_0_50_209
*1920 FILLER_0_50_221
*1921 FILLER_0_50_233
*1922 FILLER_0_50_245
*1923 FILLER_0_50_251
*1924 FILLER_0_50_253
*1925 FILLER_0_50_265
*1926 FILLER_0_50_27
*1927 FILLER_0_50_277
*1928 FILLER_0_50_289
*1929 FILLER_0_50_29
*1930 FILLER_0_50_3
*1931 FILLER_0_50_301
*1932 FILLER_0_50_307
*1933 FILLER_0_50_309
*1934 FILLER_0_50_321
*1935 FILLER_0_50_333
*1936 FILLER_0_50_41
*1937 FILLER_0_50_53
*1938 FILLER_0_50_65
*1939 FILLER_0_50_77
*1940 FILLER_0_50_83
*1941 FILLER_0_50_85
*1942 FILLER_0_50_97
*1943 FILLER_0_51_105
*1944 FILLER_0_51_111
*1945 FILLER_0_51_113
*1946 FILLER_0_51_125
*1947 FILLER_0_51_137
*1948 FILLER_0_51_149
*1949 FILLER_0_51_15
*1950 FILLER_0_51_161
*1951 FILLER_0_51_167
*1952 FILLER_0_51_169
*1953 FILLER_0_51_181
*1954 FILLER_0_51_193
*1955 FILLER_0_51_205
*1956 FILLER_0_51_217
*1957 FILLER_0_51_223
*1958 FILLER_0_51_225
*1959 FILLER_0_51_237
*1960 FILLER_0_51_249
*1961 FILLER_0_51_261
*1962 FILLER_0_51_27
*1963 FILLER_0_51_273
*1964 FILLER_0_51_279
*1965 FILLER_0_51_281
*1966 FILLER_0_51_293
*1967 FILLER_0_51_3
*1968 FILLER_0_51_305
*1969 FILLER_0_51_317
*1970 FILLER_0_51_329
*1971 FILLER_0_51_335
*1972 FILLER_0_51_337
*1973 FILLER_0_51_343
*1974 FILLER_0_51_39
*1975 FILLER_0_51_51
*1976 FILLER_0_51_55
*1977 FILLER_0_51_57
*1978 FILLER_0_51_69
*1979 FILLER_0_51_81
*1980 FILLER_0_51_93
*1981 FILLER_0_52_109
*1982 FILLER_0_52_121
*1983 FILLER_0_52_133
*1984 FILLER_0_52_139
*1985 FILLER_0_52_141
*1986 FILLER_0_52_15
*1987 FILLER_0_52_153
*1988 FILLER_0_52_165
*1989 FILLER_0_52_177
*1990 FILLER_0_52_189
*1991 FILLER_0_52_195
*1992 FILLER_0_52_197
*1993 FILLER_0_52_209
*1994 FILLER_0_52_221
*1995 FILLER_0_52_233
*1996 FILLER_0_52_245
*1997 FILLER_0_52_251
*1998 FILLER_0_52_253
*1999 FILLER_0_52_265
*2000 FILLER_0_52_27
*2001 FILLER_0_52_277
*2002 FILLER_0_52_289
*2003 FILLER_0_52_29
*2004 FILLER_0_52_3
*2005 FILLER_0_52_301
*2006 FILLER_0_52_307
*2007 FILLER_0_52_309
*2008 FILLER_0_52_321
*2009 FILLER_0_52_333
*2010 FILLER_0_52_341
*2011 FILLER_0_52_41
*2012 FILLER_0_52_53
*2013 FILLER_0_52_65
*2014 FILLER_0_52_77
*2015 FILLER_0_52_83
*2016 FILLER_0_52_85
*2017 FILLER_0_52_97
*2018 FILLER_0_53_105
*2019 FILLER_0_53_111
*2020 FILLER_0_53_113
*2021 FILLER_0_53_125
*2022 FILLER_0_53_137
*2023 FILLER_0_53_149
*2024 FILLER_0_53_15
*2025 FILLER_0_53_161
*2026 FILLER_0_53_167
*2027 FILLER_0_53_169
*2028 FILLER_0_53_181
*2029 FILLER_0_53_193
*2030 FILLER_0_53_205
*2031 FILLER_0_53_217
*2032 FILLER_0_53_223
*2033 FILLER_0_53_225
*2034 FILLER_0_53_237
*2035 FILLER_0_53_249
*2036 FILLER_0_53_261
*2037 FILLER_0_53_27
*2038 FILLER_0_53_273
*2039 FILLER_0_53_279
*2040 FILLER_0_53_281
*2041 FILLER_0_53_293
*2042 FILLER_0_53_3
*2043 FILLER_0_53_305
*2044 FILLER_0_53_317
*2045 FILLER_0_53_329
*2046 FILLER_0_53_335
*2047 FILLER_0_53_337
*2048 FILLER_0_53_343
*2049 FILLER_0_53_39
*2050 FILLER_0_53_51
*2051 FILLER_0_53_55
*2052 FILLER_0_53_57
*2053 FILLER_0_53_69
*2054 FILLER_0_53_81
*2055 FILLER_0_53_93
*2056 FILLER_0_54_109
*2057 FILLER_0_54_121
*2058 FILLER_0_54_133
*2059 FILLER_0_54_139
*2060 FILLER_0_54_141
*2061 FILLER_0_54_15
*2062 FILLER_0_54_153
*2063 FILLER_0_54_165
*2064 FILLER_0_54_177
*2065 FILLER_0_54_189
*2066 FILLER_0_54_195
*2067 FILLER_0_54_197
*2068 FILLER_0_54_209
*2069 FILLER_0_54_221
*2070 FILLER_0_54_233
*2071 FILLER_0_54_245
*2072 FILLER_0_54_251
*2073 FILLER_0_54_253
*2074 FILLER_0_54_265
*2075 FILLER_0_54_27
*2076 FILLER_0_54_277
*2077 FILLER_0_54_289
*2078 FILLER_0_54_29
*2079 FILLER_0_54_3
*2080 FILLER_0_54_301
*2081 FILLER_0_54_307
*2082 FILLER_0_54_309
*2083 FILLER_0_54_321
*2084 FILLER_0_54_333
*2085 FILLER_0_54_341
*2086 FILLER_0_54_41
*2087 FILLER_0_54_53
*2088 FILLER_0_54_65
*2089 FILLER_0_54_77
*2090 FILLER_0_54_83
*2091 FILLER_0_54_85
*2092 FILLER_0_54_97
*2093 FILLER_0_55_105
*2094 FILLER_0_55_111
*2095 FILLER_0_55_113
*2096 FILLER_0_55_125
*2097 FILLER_0_55_137
*2098 FILLER_0_55_149
*2099 FILLER_0_55_161
*2100 FILLER_0_55_167
*2101 FILLER_0_55_169
*2102 FILLER_0_55_181
*2103 FILLER_0_55_19
*2104 FILLER_0_55_193
*2105 FILLER_0_55_205
*2106 FILLER_0_55_217
*2107 FILLER_0_55_223
*2108 FILLER_0_55_225
*2109 FILLER_0_55_237
*2110 FILLER_0_55_249
*2111 FILLER_0_55_261
*2112 FILLER_0_55_273
*2113 FILLER_0_55_279
*2114 FILLER_0_55_281
*2115 FILLER_0_55_293
*2116 FILLER_0_55_305
*2117 FILLER_0_55_31
*2118 FILLER_0_55_317
*2119 FILLER_0_55_329
*2120 FILLER_0_55_335
*2121 FILLER_0_55_337
*2122 FILLER_0_55_343
*2123 FILLER_0_55_43
*2124 FILLER_0_55_55
*2125 FILLER_0_55_57
*2126 FILLER_0_55_69
*2127 FILLER_0_55_7
*2128 FILLER_0_55_81
*2129 FILLER_0_55_93
*2130 FILLER_0_56_109
*2131 FILLER_0_56_121
*2132 FILLER_0_56_133
*2133 FILLER_0_56_139
*2134 FILLER_0_56_141
*2135 FILLER_0_56_15
*2136 FILLER_0_56_153
*2137 FILLER_0_56_165
*2138 FILLER_0_56_177
*2139 FILLER_0_56_189
*2140 FILLER_0_56_195
*2141 FILLER_0_56_197
*2142 FILLER_0_56_209
*2143 FILLER_0_56_221
*2144 FILLER_0_56_233
*2145 FILLER_0_56_245
*2146 FILLER_0_56_251
*2147 FILLER_0_56_253
*2148 FILLER_0_56_265
*2149 FILLER_0_56_27
*2150 FILLER_0_56_277
*2151 FILLER_0_56_289
*2152 FILLER_0_56_29
*2153 FILLER_0_56_3
*2154 FILLER_0_56_301
*2155 FILLER_0_56_307
*2156 FILLER_0_56_309
*2157 FILLER_0_56_321
*2158 FILLER_0_56_333
*2159 FILLER_0_56_339
*2160 FILLER_0_56_41
*2161 FILLER_0_56_53
*2162 FILLER_0_56_65
*2163 FILLER_0_56_77
*2164 FILLER_0_56_83
*2165 FILLER_0_56_85
*2166 FILLER_0_56_97
*2167 FILLER_0_57_109
*2168 FILLER_0_57_113
*2169 FILLER_0_57_13
*2170 FILLER_0_57_135
*2171 FILLER_0_57_139
*2172 FILLER_0_57_141
*2173 FILLER_0_57_153
*2174 FILLER_0_57_165
*2175 FILLER_0_57_169
*2176 FILLER_0_57_187
*2177 FILLER_0_57_195
*2178 FILLER_0_57_197
*2179 FILLER_0_57_209
*2180 FILLER_0_57_221
*2181 FILLER_0_57_225
*2182 FILLER_0_57_237
*2183 FILLER_0_57_243
*2184 FILLER_0_57_248
*2185 FILLER_0_57_25
*2186 FILLER_0_57_253
*2187 FILLER_0_57_265
*2188 FILLER_0_57_277
*2189 FILLER_0_57_281
*2190 FILLER_0_57_29
*2191 FILLER_0_57_293
*2192 FILLER_0_57_299
*2193 FILLER_0_57_304
*2194 FILLER_0_57_309
*2195 FILLER_0_57_321
*2196 FILLER_0_57_329
*2197 FILLER_0_57_337
*2198 FILLER_0_57_343
*2199 FILLER_0_57_41
*2200 FILLER_0_57_53
*2201 FILLER_0_57_57
*2202 FILLER_0_57_73
*2203 FILLER_0_57_81
*2204 FILLER_0_57_85
*2205 FILLER_0_57_97
*2206 FILLER_0_5_105
*2207 FILLER_0_5_111
*2208 FILLER_0_5_113
*2209 FILLER_0_5_125
*2210 FILLER_0_5_137
*2211 FILLER_0_5_149
*2212 FILLER_0_5_15
*2213 FILLER_0_5_161
*2214 FILLER_0_5_167
*2215 FILLER_0_5_169
*2216 FILLER_0_5_181
*2217 FILLER_0_5_193
*2218 FILLER_0_5_205
*2219 FILLER_0_5_217
*2220 FILLER_0_5_223
*2221 FILLER_0_5_225
*2222 FILLER_0_5_237
*2223 FILLER_0_5_249
*2224 FILLER_0_5_261
*2225 FILLER_0_5_27
*2226 FILLER_0_5_273
*2227 FILLER_0_5_279
*2228 FILLER_0_5_281
*2229 FILLER_0_5_293
*2230 FILLER_0_5_3
*2231 FILLER_0_5_305
*2232 FILLER_0_5_317
*2233 FILLER_0_5_329
*2234 FILLER_0_5_335
*2235 FILLER_0_5_337
*2236 FILLER_0_5_343
*2237 FILLER_0_5_39
*2238 FILLER_0_5_51
*2239 FILLER_0_5_55
*2240 FILLER_0_5_57
*2241 FILLER_0_5_69
*2242 FILLER_0_5_81
*2243 FILLER_0_5_93
*2244 FILLER_0_6_109
*2245 FILLER_0_6_121
*2246 FILLER_0_6_133
*2247 FILLER_0_6_139
*2248 FILLER_0_6_141
*2249 FILLER_0_6_15
*2250 FILLER_0_6_153
*2251 FILLER_0_6_165
*2252 FILLER_0_6_177
*2253 FILLER_0_6_189
*2254 FILLER_0_6_195
*2255 FILLER_0_6_197
*2256 FILLER_0_6_209
*2257 FILLER_0_6_221
*2258 FILLER_0_6_233
*2259 FILLER_0_6_245
*2260 FILLER_0_6_251
*2261 FILLER_0_6_253
*2262 FILLER_0_6_265
*2263 FILLER_0_6_27
*2264 FILLER_0_6_277
*2265 FILLER_0_6_289
*2266 FILLER_0_6_29
*2267 FILLER_0_6_3
*2268 FILLER_0_6_301
*2269 FILLER_0_6_307
*2270 FILLER_0_6_309
*2271 FILLER_0_6_321
*2272 FILLER_0_6_333
*2273 FILLER_0_6_341
*2274 FILLER_0_6_41
*2275 FILLER_0_6_53
*2276 FILLER_0_6_65
*2277 FILLER_0_6_77
*2278 FILLER_0_6_83
*2279 FILLER_0_6_85
*2280 FILLER_0_6_97
*2281 FILLER_0_7_105
*2282 FILLER_0_7_111
*2283 FILLER_0_7_113
*2284 FILLER_0_7_125
*2285 FILLER_0_7_137
*2286 FILLER_0_7_149
*2287 FILLER_0_7_15
*2288 FILLER_0_7_161
*2289 FILLER_0_7_167
*2290 FILLER_0_7_169
*2291 FILLER_0_7_181
*2292 FILLER_0_7_193
*2293 FILLER_0_7_205
*2294 FILLER_0_7_217
*2295 FILLER_0_7_223
*2296 FILLER_0_7_225
*2297 FILLER_0_7_237
*2298 FILLER_0_7_249
*2299 FILLER_0_7_261
*2300 FILLER_0_7_27
*2301 FILLER_0_7_273
*2302 FILLER_0_7_279
*2303 FILLER_0_7_281
*2304 FILLER_0_7_293
*2305 FILLER_0_7_3
*2306 FILLER_0_7_305
*2307 FILLER_0_7_317
*2308 FILLER_0_7_329
*2309 FILLER_0_7_335
*2310 FILLER_0_7_337
*2311 FILLER_0_7_343
*2312 FILLER_0_7_39
*2313 FILLER_0_7_51
*2314 FILLER_0_7_55
*2315 FILLER_0_7_57
*2316 FILLER_0_7_69
*2317 FILLER_0_7_81
*2318 FILLER_0_7_93
*2319 FILLER_0_8_109
*2320 FILLER_0_8_121
*2321 FILLER_0_8_133
*2322 FILLER_0_8_139
*2323 FILLER_0_8_141
*2324 FILLER_0_8_15
*2325 FILLER_0_8_153
*2326 FILLER_0_8_165
*2327 FILLER_0_8_177
*2328 FILLER_0_8_189
*2329 FILLER_0_8_195
*2330 FILLER_0_8_197
*2331 FILLER_0_8_209
*2332 FILLER_0_8_221
*2333 FILLER_0_8_233
*2334 FILLER_0_8_245
*2335 FILLER_0_8_251
*2336 FILLER_0_8_253
*2337 FILLER_0_8_265
*2338 FILLER_0_8_27
*2339 FILLER_0_8_277
*2340 FILLER_0_8_289
*2341 FILLER_0_8_29
*2342 FILLER_0_8_3
*2343 FILLER_0_8_301
*2344 FILLER_0_8_307
*2345 FILLER_0_8_309
*2346 FILLER_0_8_321
*2347 FILLER_0_8_333
*2348 FILLER_0_8_41
*2349 FILLER_0_8_53
*2350 FILLER_0_8_65
*2351 FILLER_0_8_77
*2352 FILLER_0_8_83
*2353 FILLER_0_8_85
*2354 FILLER_0_8_97
*2355 FILLER_0_9_105
*2356 FILLER_0_9_111
*2357 FILLER_0_9_113
*2358 FILLER_0_9_125
*2359 FILLER_0_9_137
*2360 FILLER_0_9_149
*2361 FILLER_0_9_15
*2362 FILLER_0_9_161
*2363 FILLER_0_9_167
*2364 FILLER_0_9_169
*2365 FILLER_0_9_181
*2366 FILLER_0_9_193
*2367 FILLER_0_9_205
*2368 FILLER_0_9_217
*2369 FILLER_0_9_223
*2370 FILLER_0_9_225
*2371 FILLER_0_9_237
*2372 FILLER_0_9_249
*2373 FILLER_0_9_261
*2374 FILLER_0_9_27
*2375 FILLER_0_9_273
*2376 FILLER_0_9_279
*2377 FILLER_0_9_281
*2378 FILLER_0_9_293
*2379 FILLER_0_9_3
*2380 FILLER_0_9_305
*2381 FILLER_0_9_317
*2382 FILLER_0_9_329
*2383 FILLER_0_9_335
*2384 FILLER_0_9_337
*2385 FILLER_0_9_343
*2386 FILLER_0_9_39
*2387 FILLER_0_9_51
*2388 FILLER_0_9_55
*2389 FILLER_0_9_57
*2390 FILLER_0_9_69
*2391 FILLER_0_9_81
*2392 FILLER_0_9_93
*2393 PHY_0
*2394 PHY_1
*2395 PHY_10
*2396 PHY_100
*2397 PHY_101
*2398 PHY_102
*2399 PHY_103
*2400 PHY_104
*2401 PHY_105
*2402 PHY_106
*2403 PHY_107
*2404 PHY_108
*2405 PHY_109
*2406 PHY_11
*2407 PHY_110
*2408 PHY_111
*2409 PHY_112
*2410 PHY_113
*2411 PHY_114
*2412 PHY_115
*2413 PHY_12
*2414 PHY_13
*2415 PHY_14
*2416 PHY_15
*2417 PHY_16
*2418 PHY_17
*2419 PHY_18
*2420 PHY_19
*2421 PHY_2
*2422 PHY_20
*2423 PHY_21
*2424 PHY_22
*2425 PHY_23
*2426 PHY_24
*2427 PHY_25
*2428 PHY_26
*2429 PHY_27
*2430 PHY_28
*2431 PHY_29
*2432 PHY_3
*2433 PHY_30
*2434 PHY_31
*2435 PHY_32
*2436 PHY_33
*2437 PHY_34
*2438 PHY_35
*2439 PHY_36
*2440 PHY_37
*2441 PHY_38
*2442 PHY_39
*2443 PHY_4
*2444 PHY_40
*2445 PHY_41
*2446 PHY_42
*2447 PHY_43
*2448 PHY_44
*2449 PHY_45
*2450 PHY_46
*2451 PHY_47
*2452 PHY_48
*2453 PHY_49
*2454 PHY_5
*2455 PHY_50
*2456 PHY_51
*2457 PHY_52
*2458 PHY_53
*2459 PHY_54
*2460 PHY_55
*2461 PHY_56
*2462 PHY_57
*2463 PHY_58
*2464 PHY_59
*2465 PHY_6
*2466 PHY_60
*2467 PHY_61
*2468 PHY_62
*2469 PHY_63
*2470 PHY_64
*2471 PHY_65
*2472 PHY_66
*2473 PHY_67
*2474 PHY_68
*2475 PHY_69
*2476 PHY_7
*2477 PHY_70
*2478 PHY_71
*2479 PHY_72
*2480 PHY_73
*2481 PHY_74
*2482 PHY_75
*2483 PHY_76
*2484 PHY_77
*2485 PHY_78
*2486 PHY_79
*2487 PHY_8
*2488 PHY_80
*2489 PHY_81
*2490 PHY_82
*2491 PHY_83
*2492 PHY_84
*2493 PHY_85
*2494 PHY_86
*2495 PHY_87
*2496 PHY_88
*2497 PHY_89
*2498 PHY_9
*2499 PHY_90
*2500 PHY_91
*2501 PHY_92
*2502 PHY_93
*2503 PHY_94
*2504 PHY_95
*2505 PHY_96
*2506 PHY_97
*2507 PHY_98
*2508 PHY_99
*2509 TAP_116
*2510 TAP_117
*2511 TAP_118
*2512 TAP_119
*2513 TAP_120
*2514 TAP_121
*2515 TAP_122
*2516 TAP_123
*2517 TAP_124
*2518 TAP_125
*2519 TAP_126
*2520 TAP_127
*2521 TAP_128
*2522 TAP_129
*2523 TAP_130
*2524 TAP_131
*2525 TAP_132
*2526 TAP_133
*2527 TAP_134
*2528 TAP_135
*2529 TAP_136
*2530 TAP_137
*2531 TAP_138
*2532 TAP_139
*2533 TAP_140
*2534 TAP_141
*2535 TAP_142
*2536 TAP_143
*2537 TAP_144
*2538 TAP_145
*2539 TAP_146
*2540 TAP_147
*2541 TAP_148
*2542 TAP_149
*2543 TAP_150
*2544 TAP_151
*2545 TAP_152
*2546 TAP_153
*2547 TAP_154
*2548 TAP_155
*2549 TAP_156
*2550 TAP_157
*2551 TAP_158
*2552 TAP_159
*2553 TAP_160
*2554 TAP_161
*2555 TAP_162
*2556 TAP_163
*2557 TAP_164
*2558 TAP_165
*2559 TAP_166
*2560 TAP_167
*2561 TAP_168
*2562 TAP_169
*2563 TAP_170
*2564 TAP_171
*2565 TAP_172
*2566 TAP_173
*2567 TAP_174
*2568 TAP_175
*2569 TAP_176
*2570 TAP_177
*2571 TAP_178
*2572 TAP_179
*2573 TAP_180
*2574 TAP_181
*2575 TAP_182
*2576 TAP_183
*2577 TAP_184
*2578 TAP_185
*2579 TAP_186
*2580 TAP_187
*2581 TAP_188
*2582 TAP_189
*2583 TAP_190
*2584 TAP_191
*2585 TAP_192
*2586 TAP_193
*2587 TAP_194
*2588 TAP_195
*2589 TAP_196
*2590 TAP_197
*2591 TAP_198
*2592 TAP_199
*2593 TAP_200
*2594 TAP_201
*2595 TAP_202
*2596 TAP_203
*2597 TAP_204
*2598 TAP_205
*2599 TAP_206
*2600 TAP_207
*2601 TAP_208
*2602 TAP_209
*2603 TAP_210
*2604 TAP_211
*2605 TAP_212
*2606 TAP_213
*2607 TAP_214
*2608 TAP_215
*2609 TAP_216
*2610 TAP_217
*2611 TAP_218
*2612 TAP_219
*2613 TAP_220
*2614 TAP_221
*2615 TAP_222
*2616 TAP_223
*2617 TAP_224
*2618 TAP_225
*2619 TAP_226
*2620 TAP_227
*2621 TAP_228
*2622 TAP_229
*2623 TAP_230
*2624 TAP_231
*2625 TAP_232
*2626 TAP_233
*2627 TAP_234
*2628 TAP_235
*2629 TAP_236
*2630 TAP_237
*2631 TAP_238
*2632 TAP_239
*2633 TAP_240
*2634 TAP_241
*2635 TAP_242
*2636 TAP_243
*2637 TAP_244
*2638 TAP_245
*2639 TAP_246
*2640 TAP_247
*2641 TAP_248
*2642 TAP_249
*2643 TAP_250
*2644 TAP_251
*2645 TAP_252
*2646 TAP_253
*2647 TAP_254
*2648 TAP_255
*2649 TAP_256
*2650 TAP_257
*2651 TAP_258
*2652 TAP_259
*2653 TAP_260
*2654 TAP_261
*2655 TAP_262
*2656 TAP_263
*2657 TAP_264
*2658 TAP_265
*2659 TAP_266
*2660 TAP_267
*2661 TAP_268
*2662 TAP_269
*2663 TAP_270
*2664 TAP_271
*2665 TAP_272
*2666 TAP_273
*2667 TAP_274
*2668 TAP_275
*2669 TAP_276
*2670 TAP_277
*2671 TAP_278
*2672 TAP_279
*2673 TAP_280
*2674 TAP_281
*2675 TAP_282
*2676 TAP_283
*2677 TAP_284
*2678 TAP_285
*2679 TAP_286
*2680 TAP_287
*2681 TAP_288
*2682 TAP_289
*2683 TAP_290
*2684 TAP_291
*2685 TAP_292
*2686 TAP_293
*2687 TAP_294
*2688 TAP_295
*2689 TAP_296
*2690 TAP_297
*2691 TAP_298
*2692 TAP_299
*2693 TAP_300
*2694 TAP_301
*2695 TAP_302
*2696 TAP_303
*2697 TAP_304
*2698 TAP_305
*2699 TAP_306
*2700 TAP_307
*2701 TAP_308
*2702 TAP_309
*2703 TAP_310
*2704 TAP_311
*2705 TAP_312
*2706 TAP_313
*2707 TAP_314
*2708 TAP_315
*2709 TAP_316
*2710 TAP_317
*2711 TAP_318
*2712 TAP_319
*2713 TAP_320
*2714 TAP_321
*2715 TAP_322
*2716 TAP_323
*2717 TAP_324
*2718 TAP_325
*2719 TAP_326
*2720 TAP_327
*2721 TAP_328
*2722 TAP_329
*2723 TAP_330
*2724 TAP_331
*2725 TAP_332
*2726 TAP_333
*2727 TAP_334
*2728 TAP_335
*2729 TAP_336
*2730 TAP_337
*2731 TAP_338
*2732 TAP_339
*2733 TAP_340
*2734 TAP_341
*2735 TAP_342
*2736 TAP_343
*2737 TAP_344
*2738 TAP_345
*2739 TAP_346
*2740 TAP_347
*2741 TAP_348
*2742 TAP_349
*2743 TAP_350
*2744 TAP_351
*2745 TAP_352
*2746 TAP_353
*2747 TAP_354
*2748 TAP_355
*2749 TAP_356
*2750 TAP_357
*2751 TAP_358
*2752 TAP_359
*2753 TAP_360
*2754 TAP_361
*2755 TAP_362
*2756 TAP_363
*2757 TAP_364
*2758 TAP_365
*2759 TAP_366
*2760 TAP_367
*2761 TAP_368
*2762 TAP_369
*2763 TAP_370
*2764 TAP_371
*2765 TAP_372
*2766 TAP_373
*2767 TAP_374
*2768 TAP_375
*2769 TAP_376
*2770 TAP_377
*2771 TAP_378
*2772 TAP_379
*2773 TAP_380
*2774 TAP_381
*2775 TAP_382
*2776 TAP_383
*2777 TAP_384
*2778 TAP_385
*2779 TAP_386
*2780 TAP_387
*2781 TAP_388
*2782 TAP_389
*2783 TAP_390
*2784 TAP_391
*2785 TAP_392
*2786 TAP_393
*2787 TAP_394
*2788 TAP_395
*2789 TAP_396
*2790 TAP_397
*2791 TAP_398
*2792 TAP_399
*2793 TAP_400
*2794 TAP_401
*2795 TAP_402
*2796 TAP_403
*2797 TAP_404
*2798 TAP_405
*2799 TAP_406
*2800 TAP_407
*2801 TAP_408
*2802 TAP_409
*2803 TAP_410
*2804 TAP_411
*2805 TAP_412
*2806 TAP_413
*2807 TAP_414
*2808 TAP_415
*2809 TAP_416
*2810 TAP_417
*2811 TAP_418
*2812 TAP_419
*2813 TAP_420
*2814 TAP_421
*2815 TAP_422
*2816 TAP_423
*2817 TAP_424
*2818 TAP_425
*2819 TAP_426
*2820 TAP_427
*2821 TAP_428
*2822 TAP_429
*2823 TAP_430
*2824 TAP_431
*2825 TAP_432
*2826 TAP_433
*2827 TAP_434
*2828 TAP_435
*2829 TAP_436
*2830 TAP_437
*2831 TAP_438
*2832 TAP_439
*2833 TAP_440
*2834 TAP_441
*2835 TAP_442
*2836 TAP_443
*2837 TAP_444
*2838 TAP_445
*2839 TAP_446
*2840 TAP_447
*2841 TAP_448
*2842 TAP_449
*2843 TAP_450
*2844 TAP_451
*2845 TAP_452
*2846 TAP_453
*2847 TAP_454
*2848 TAP_455
*2849 TAP_456
*2850 TAP_457
*2851 TAP_458
*2852 TAP_459
*2853 TAP_460
*2854 TAP_461
*2855 TAP_462
*2856 TAP_463
*2857 TAP_464
*2858 TAP_465
*2859 TAP_466
*2860 TAP_467
*2861 TAP_468
*2862 TAP_469
*2863 TAP_470
*2864 TAP_471
*2865 TAP_472
*2866 TAP_473
*2867 TAP_474
*2868 TAP_475
*2869 _241_
*2870 _242_
*2871 _243_
*2872 _244_
*2873 _245_
*2874 _246_
*2875 _247_
*2876 _248_
*2877 _249_
*2878 _250_
*2879 _251_
*2880 _252_
*2881 _253_
*2882 _254_
*2883 _255_
*2884 _256_
*2885 _257_
*2886 _258_
*2887 _259_
*2888 _260_
*2889 _261_
*2890 _262_
*2891 _263_
*2892 _264_
*2893 _265_
*2894 _266_
*2895 _267_
*2896 _268_
*2897 _269_
*2898 _270_
*2899 _271_
*2900 _272_
*2901 _273_
*2902 _274_
*2903 _275_
*2904 _276_
*2905 _277_
*2906 _278_
*2907 _279_
*2908 _280_
*2909 _281_
*2910 _282_
*2911 _283_
*2912 _284_
*2913 _285_
*2914 _286_
*2915 _287_
*2916 _288_
*2917 _289_
*2918 _290_
*2919 _291_
*2920 _292_
*2921 _293_
*2922 _294_
*2923 _295_
*2924 _296_
*2925 _297_
*2926 _298_
*2927 _299_
*2928 _300_
*2929 _301_
*2930 _302_
*2931 _303_
*2932 _304_
*2933 _305_
*2934 _306_
*2935 _307_
*2936 _308_
*2937 _309_
*2938 _310_
*2939 _311_
*2940 _312_
*2941 _313_
*2942 _314_
*2943 _315_
*2944 _316_
*2945 _317_
*2946 _318_
*2947 _319_
*2948 _320_
*2949 _321_
*2950 _322_
*2951 _323_
*2952 _324_
*2953 _325_
*2954 _326_
*2955 _327_
*2956 _328_
*2957 _329_
*2958 _330_
*2959 _331_
*2960 _332_
*2961 _333_
*2962 _334_
*2963 _335_
*2964 _336_
*2965 _337_
*2966 _338_
*2967 _339_
*2968 _340_
*2969 _341_
*2970 _342_
*2971 _343_
*2972 _344_
*2973 _345_
*2974 _346_
*2975 _347_
*2976 _348_
*2977 _349_
*2978 _350_
*2979 _351_
*2980 _352_
*2981 _353_
*2982 _354_
*2983 _355_
*2984 _356_
*2985 _357_
*2986 _358_
*2987 _359_
*2988 _360_
*2989 _361_
*2990 _362_
*2991 _363_
*2992 _364_
*2993 _365_
*2994 _366_
*2995 _367_
*2996 _368_
*2997 _369_
*2998 _370_
*2999 _371_
*3000 _372_
*3001 _373_
*3002 _374_
*3003 _375_
*3004 _376_
*3005 _377_
*3006 _378_
*3007 _379_
*3008 _380_
*3009 _381_
*3010 _382_
*3011 _383_
*3012 _384_
*3013 _385_
*3014 _386_
*3015 _387_
*3016 _388_
*3017 _389_
*3018 _390_
*3019 _391_
*3020 _392_
*3021 _393_
*3022 _394_
*3023 _395_
*3024 _396_
*3025 _397_
*3026 _398_
*3027 _399_
*3028 _400_
*3029 _401_
*3030 _402_
*3031 _403_
*3032 _404_
*3033 _405_
*3034 _406_
*3035 _407_
*3036 _408_
*3037 _409_
*3038 _410_
*3039 _411_
*3040 _412_
*3041 _413_
*3042 _414_
*3043 _415_
*3044 _416_
*3045 _417_
*3046 _418_
*3047 _419_
*3048 _420_
*3049 _421_
*3050 _422_
*3051 _423_
*3052 _424_
*3053 _425_
*3054 _426_
*3055 _427_
*3056 _428_
*3057 _429_
*3058 _430_
*3059 _431_
*3060 _432_
*3061 _433_
*3062 _434_
*3063 _435_
*3064 _436_
*3065 _437_
*3066 _438_
*3067 _439_
*3068 _440_
*3069 _441_
*3070 _442_
*3071 _443_
*3072 _444_
*3073 _445_
*3074 _446_
*3075 _447_
*3076 _448_
*3077 _449_
*3078 _450_
*3079 _451_
*3080 _452_
*3081 _453_
*3082 _454_
*3083 _455_
*3084 _456_
*3085 _457_
*3086 _458_
*3087 _459_
*3088 _460_
*3089 _461_
*3090 _462_
*3091 _463_
*3092 _464_
*3093 _465_
*3094 _466_
*3095 _467_
*3096 _468_
*3097 _469_
*3098 _470_
*3099 _471_
*3100 _472_
*3101 _473_
*3102 _474_
*3103 _475_
*3104 _476_
*3105 _477_
*3106 _478_
*3107 _479_
*3108 _480_
*3109 _481_
*3110 _482_
*3111 _483_
*3112 _484_
*3113 _485_
*3114 _486_
*3115 _487_
*3116 _488_
*3117 _489_
*3118 _490_
*3119 _491_
*3120 _492_
*3121 _493_
*3122 _494_
*3123 _495_
*3124 _496_
*3125 _497_
*3126 _498_
*3127 _499_
*3128 _500_
*3129 _501_
*3130 _502_
*3131 _503_
*3132 _504_
*3133 _505_
*3134 _506_
*3135 _507_
*3136 _508_
*3137 _509_
*3138 _510_
*3139 _511_
*3140 _512_
*3141 _513_
*3142 _514_
*3143 _515_
*3144 _516_
*3145 _517_
*3146 _518_
*3147 _519_
*3148 _520_
*3149 _521_
*3150 _522_
*3151 _523_
*3152 _524_
*3153 _525_
*3154 _526_
*3155 _527_
*3156 _528_
*3157 _529_
*3158 _530_
*3159 _531_
*3160 _532_
*3161 _533_
*3162 _534_
*3163 _535_
*3164 _536_
*3165 _537_
*3166 _538_
*3167 _539_
*3168 _540_
*3169 _541_
*3170 _542_
*3171 _543_
*3172 _544_
*3173 _545_
*3174 _546_
*3175 _547_
*3176 _548_
*3177 _549_
*3178 _550_
*3179 _551_
*3180 _552_
*3181 _553_
*3182 _554_
*3183 _555_
*3184 _556_
*3185 _557_
*3186 _558_
*3187 _559_
*3188 _560_
*3189 _561_
*3190 _562_
*3191 clkbuf_0_clk
*3192 clkbuf_3_0__f_clk
*3193 clkbuf_3_1__f_clk
*3194 clkbuf_3_2__f_clk
*3195 clkbuf_3_3__f_clk
*3196 clkbuf_3_4__f_clk
*3197 clkbuf_3_5__f_clk
*3198 clkbuf_3_6__f_clk
*3199 clkbuf_3_7__f_clk
*3200 fanout29
*3201 fanout30
*3202 fanout31
*3203 fanout32
*3204 fanout33
*3205 fanout34
*3206 fanout35
*3207 fanout36
*3208 fanout37
*3209 hold1
*3210 hold10
*3211 hold11
*3212 hold12
*3213 hold13
*3214 hold14
*3215 hold15
*3216 hold16
*3217 hold17
*3218 hold18
*3219 hold19
*3220 hold2
*3221 hold20
*3222 hold21
*3223 hold22
*3224 hold23
*3225 hold24
*3226 hold25
*3227 hold26
*3228 hold27
*3229 hold28
*3230 hold29
*3231 hold3
*3232 hold30
*3233 hold31
*3234 hold32
*3235 hold33
*3236 hold34
*3237 hold35
*3238 hold36
*3239 hold4
*3240 hold5
*3241 hold6
*3242 hold7
*3243 hold8
*3244 hold9
*3245 input1
*3246 input10
*3247 input11
*3248 input12
*3249 input13
*3250 input14
*3251 input15
*3252 input16
*3253 input17
*3254 input18
*3255 input19
*3256 input2
*3257 input20
*3258 input21
*3259 input22
*3260 input23
*3261 input3
*3262 input4
*3263 input5
*3264 input6
*3265 input7
*3266 input8
*3267 input9
*3268 output24
*3269 output25
*3270 output26
*3271 output27
*3272 output28

*PORTS
any_match O
cfg_en I
cfg_idx[0] I
cfg_idx[1] I
cfg_mask[0] I
cfg_mask[1] I
cfg_mask[2] I
cfg_mask[3] I
cfg_mask[4] I
cfg_mask[5] I
cfg_mask[6] I
cfg_mask[7] I
cfg_pattern[0] I
cfg_pattern[1] I
cfg_pattern[2] I
cfg_pattern[3] I
cfg_pattern[4] I
cfg_pattern[5] I
cfg_pattern[6] I
cfg_pattern[7] I
cfg_we I
clk I
data_in I
data_valid I
pattern_match[0] O
pattern_match[1] O
pattern_match[2] O
pattern_match[3] O
rst_n I

*D_NET *1 0.00171065
*CONN
*P any_match O
*I *3268:X O *D sky130_fd_sc_hd__clkbuf_4
*CAP
1 any_match 0.000855324
2 *3268:X 0.000855324
*RES
1 *3268:X any_match 12.7794 
*END

*D_NET *2 0.00201087
*CONN
*P cfg_en I
*I *3245:A I *D sky130_fd_sc_hd__clkbuf_2
*CAP
1 cfg_en 0.00100543
2 *3245:A 0.00100543
3 *3245:A *3272:A 0
4 *3245:A *318:14 0
*RES
1 cfg_en *3245:A 10.0165 
*END

*D_NET *3 0.00181907
*CONN
*P cfg_idx[0] I
*I *3256:A I *D sky130_fd_sc_hd__buf_1
*CAP
1 cfg_idx[0] 0.000909533
2 *3256:A 0.000909533
*RES
1 cfg_idx[0] *3256:A 8.2915 
*END

*D_NET *4 0.00159122
*CONN
*P cfg_idx[1] I
*I *3261:A I *D sky130_fd_sc_hd__clkbuf_2
*CAP
1 cfg_idx[1] 0.000795608
2 *3261:A 0.000795608
*RES
1 cfg_idx[1] *3261:A 17.685 
*END

*D_NET *5 0.00167258
*CONN
*P cfg_mask[0] I
*I *3262:A I *D sky130_fd_sc_hd__clkbuf_2
*CAP
1 cfg_mask[0] 0.000836291
2 *3262:A 0.000836291
*RES
1 cfg_mask[0] *3262:A 18.705 
*END

*D_NET *6 0.00175077
*CONN
*P cfg_mask[1] I
*I *3263:A I *D sky130_fd_sc_hd__clkbuf_2
*CAP
1 cfg_mask[1] 0.000875383
2 *3263:A 0.000875383
*RES
1 cfg_mask[1] *3263:A 18.615 
*END

*D_NET *7 0.0016906
*CONN
*P cfg_mask[2] I
*I *3264:A I *D sky130_fd_sc_hd__dlymetal6s2s_1
*CAP
1 cfg_mask[2] 0.0008453
2 *3264:A 0.0008453
*RES
1 cfg_mask[2] *3264:A 12.7794 
*END

*D_NET *8 0.00156779
*CONN
*P cfg_mask[3] I
*I *3265:A I *D sky130_fd_sc_hd__dlymetal6s2s_1
*CAP
1 cfg_mask[3] 0.000783895
2 *3265:A 0.000783895
*RES
1 cfg_mask[3] *3265:A 17.595 
*END

*D_NET *9 0.00165707
*CONN
*P cfg_mask[4] I
*I *3266:A I *D sky130_fd_sc_hd__clkbuf_2
*CAP
1 cfg_mask[4] 0.000810639
2 *3266:A 0.000810639
3 *3266:A *321:8 3.57898e-05
*RES
1 cfg_mask[4] *3266:A 17.925 
*END

*D_NET *10 0.00195264
*CONN
*P cfg_mask[5] I
*I *3267:A I *D sky130_fd_sc_hd__clkbuf_2
*CAP
1 cfg_mask[5] 0.00089252
2 *3267:A 0.00089252
3 *3267:A *324:8 4.40028e-05
4 *3267:A *390:8 0.000123592
*RES
1 cfg_mask[5] *3267:A 19.635 
*END

*D_NET *11 0.00250973
*CONN
*P cfg_mask[6] I
*I *3246:A I *D sky130_fd_sc_hd__clkbuf_2
*CAP
1 cfg_mask[6] 0.00125486
2 *3246:A 0.00125486
3 *3246:A *3248:A 0
*RES
1 cfg_mask[6] *3246:A 14.0515 
*END

*D_NET *12 0.00165137
*CONN
*P cfg_mask[7] I
*I *3247:A I *D sky130_fd_sc_hd__clkbuf_2
*CAP
1 cfg_mask[7] 0.000825683
2 *3247:A 0.000825683
*RES
1 cfg_mask[7] *3247:A 17.925 
*END

*D_NET *13 0.00247583
*CONN
*P cfg_pattern[0] I
*I *3248:A I *D sky130_fd_sc_hd__clkbuf_2
*CAP
1 cfg_pattern[0] 0.00123791
2 *3248:A 0.00123791
3 *3246:A *3248:A 0
*RES
1 cfg_pattern[0] *3248:A 24.135 
*END

*D_NET *14 0.00174908
*CONN
*P cfg_pattern[1] I
*I *3249:A I *D sky130_fd_sc_hd__buf_1
*CAP
1 cfg_pattern[1] 0.00087454
2 *3249:A 0.00087454
*RES
1 cfg_pattern[1] *3249:A 11.9458 
*END

*D_NET *15 0.00184999
*CONN
*P cfg_pattern[2] I
*I *3250:A I *D sky130_fd_sc_hd__dlymetal6s2s_1
*CAP
1 cfg_pattern[2] 0.000924993
2 *3250:A 0.000924993
*RES
1 cfg_pattern[2] *3250:A 8.18303 
*END

*D_NET *16 0.00245665
*CONN
*P cfg_pattern[3] I
*I *3251:A I *D sky130_fd_sc_hd__clkbuf_2
*CAP
1 cfg_pattern[3] 0.00122832
2 *3251:A 0.00122832
*RES
1 cfg_pattern[3] *3251:A 24.81 
*END

*D_NET *17 0.00355288
*CONN
*P cfg_pattern[4] I
*I *3252:A I *D sky130_fd_sc_hd__clkbuf_2
*CAP
1 cfg_pattern[4] 0.00177644
2 *3252:A 0.00177644
3 *3252:A *3253:A 0
*RES
1 cfg_pattern[4] *3252:A 38.575 
*END

*D_NET *18 0.0016758
*CONN
*P cfg_pattern[5] I
*I *3253:A I *D sky130_fd_sc_hd__clkbuf_2
*CAP
1 cfg_pattern[5] 0.000837898
2 *3253:A 0.000837898
3 *3252:A *3253:A 0
*RES
1 cfg_pattern[5] *3253:A 18.705 
*END

*D_NET *19 0.00167856
*CONN
*P cfg_pattern[6] I
*I *3254:A I *D sky130_fd_sc_hd__clkbuf_2
*CAP
1 cfg_pattern[6] 0.000835014
2 *3254:A 0.000835014
3 *3254:A *326:12 8.53113e-06
*RES
1 cfg_pattern[6] *3254:A 18.705 
*END

*D_NET *20 0.0027357
*CONN
*P cfg_pattern[7] I
*I *3255:A I *D sky130_fd_sc_hd__clkbuf_2
*CAP
1 cfg_pattern[7] 0.00136785
2 *3255:A 0.00136785
*RES
1 cfg_pattern[7] *3255:A 15.6363 
*END

*D_NET *21 0.00184922
*CONN
*P cfg_we I
*I *3257:A I *D sky130_fd_sc_hd__buf_1
*CAP
1 cfg_we 0.00086242
2 *3257:A 0.00086242
3 *3257:A *327:8 0.000124384
*RES
1 cfg_we *3257:A 19.2 
*END

*D_NET *22 0.0170202
*CONN
*P clk I
*I *3191:A I *D sky130_fd_sc_hd__clkbuf_16
*CAP
1 clk 0.00822793
2 *3191:A 0.00822793
3 *3191:A *2897:D 0.000118407
4 *3191:A *2907:A 0
5 *3191:A *2937:D 0.000104622
6 *3191:A *3134:RESET_B 0.00010784
7 *3191:A *153:24 0.000192945
8 *3191:A *273:14 4.05161e-05
*RES
1 clk *3191:A 24.5115 
*END

*D_NET *23 0.00187104
*CONN
*P data_in I
*I *3258:A I *D sky130_fd_sc_hd__buf_1
*CAP
1 data_in 0.000897247
2 *3258:A 0.000897247
3 *3258:A *2951:A1 5.8286e-05
4 *3258:A *319:10 1.82571e-05
*RES
1 data_in *3258:A 8.18303 
*END

*D_NET *24 0.00176998
*CONN
*P data_valid I
*I *3259:A I *D sky130_fd_sc_hd__buf_4
*CAP
1 data_valid 0.00088499
2 *3259:A 0.00088499
*RES
1 data_valid *3259:A 11.9458 
*END

*D_NET *25 0.0015567
*CONN
*P pattern_match[0] O
*I *3269:X O *D sky130_fd_sc_hd__clkbuf_4
*CAP
1 pattern_match[0] 0.00076333
2 *3269:X 0.00076333
3 pattern_match[0] *384:8 3.00381e-05
*RES
1 *3269:X pattern_match[0] 17.235 
*END

*D_NET *26 0.00164387
*CONN
*P pattern_match[1] O
*I *3270:X O *D sky130_fd_sc_hd__clkbuf_4
*CAP
1 pattern_match[1] 0.000821937
2 *3270:X 0.000821937
*RES
1 *3270:X pattern_match[1] 18.255 
*END

*D_NET *27 0.0017551
*CONN
*P pattern_match[2] O
*I *3271:X O *D sky130_fd_sc_hd__clkbuf_4
*CAP
1 pattern_match[2] 0.00087755
2 *3271:X 0.00087755
*RES
1 *3271:X pattern_match[2] 11.9458 
*END

*D_NET *28 0.00330125
*CONN
*P pattern_match[3] O
*I *3272:X O *D sky130_fd_sc_hd__clkbuf_4
*CAP
1 pattern_match[3] 0.00165062
2 *3272:X 0.00165062
*RES
1 *3272:X pattern_match[3] 25.7158 
*END

*D_NET *29 0.00176035
*CONN
*P rst_n I
*I *3260:A I *D sky130_fd_sc_hd__clkbuf_2
*CAP
1 rst_n 0.000880174
2 *3260:A 0.000880174
*RES
1 rst_n *3260:A 13.1244 
*END

*D_NET *32 0.000323732
*CONN
*I *3115:D I *D sky130_fd_sc_hd__dfrtp_4
*I *2952:X O *D sky130_fd_sc_hd__clkbuf_1
*CAP
1 *3115:D 0.000146847
2 *2952:X 0.000146847
3 *3115:D *3115:CLK 3.00381e-05
*RES
1 *2952:X *3115:D 5.045 
*END

*D_NET *33 0.000583075
*CONN
*I *3116:D I *D sky130_fd_sc_hd__dfrtp_4
*I *2954:X O *D sky130_fd_sc_hd__clkbuf_1
*CAP
1 *3116:D 0.000244494
2 *2954:X 0.000244494
3 *3116:D *2954:A 0
4 *3116:D *3116:RESET_B 9.4087e-05
5 *3116:D *3117:D 0
6 *3116:D *279:52 0
7 *3116:D *320:8 0
*RES
1 *2954:X *3116:D 11.34 
*END

*D_NET *34 0.00102081
*CONN
*I *3117:D I *D sky130_fd_sc_hd__dfrtp_4
*I *2956:X O *D sky130_fd_sc_hd__clkbuf_1
*CAP
1 *3117:D 0.000272287
2 *2956:X 0.000272287
3 *3117:D *2906:D 8.65905e-05
4 *3117:D *2953:A0 9.766e-05
5 *3117:D *2954:A 0.000139245
6 *3117:D *2956:A 0
7 *3117:D *195:69 0
8 *3117:D *279:52 9.57888e-05
9 *3117:D *424:14 5.69546e-05
10 *3116:D *3117:D 0
*RES
1 *2956:X *3117:D 13.71 
*END

*D_NET *35 0.000544457
*CONN
*I *3118:D I *D sky130_fd_sc_hd__dfrtp_4
*I *2958:X O *D sky130_fd_sc_hd__clkbuf_1
*CAP
1 *3118:D 0.000153561
2 *2958:X 0.000153561
3 *3118:D *2906:A 0.000115253
4 *3118:D *2906:C 0
5 *3118:D *184:16 0.000122083
*RES
1 *2958:X *3118:D 9.72 
*END

*D_NET *36 0.000426085
*CONN
*I *3119:D I *D sky130_fd_sc_hd__dfrtp_4
*I *2960:X O *D sky130_fd_sc_hd__clkbuf_1
*CAP
1 *3119:D 0.000151052
2 *2960:X 0.000151052
3 *3119:D *280:48 0
4 *3119:D *427:32 0.00012398
*RES
1 *2960:X *3119:D 9.465 
*END

*D_NET *37 0.000816266
*CONN
*I *3120:D I *D sky130_fd_sc_hd__dfrtp_4
*I *2962:X O *D sky130_fd_sc_hd__clkbuf_1
*CAP
1 *3120:D 0.000225608
2 *2962:X 0.000225608
3 *3120:D *2980:A1 0
4 *3120:D *3139:CLK 0.000111901
5 *3120:D *3271:A 2.75229e-05
6 *3120:D *207:137 0.000179015
7 *3120:D *343:73 4.66108e-05
*RES
1 *2962:X *3120:D 11.625 
*END

*D_NET *38 0.000440797
*CONN
*I *3121:D I *D sky130_fd_sc_hd__dfrtp_4
*I *2964:X O *D sky130_fd_sc_hd__clkbuf_1
*CAP
1 *3121:D 0.000103079
2 *2964:X 0.000103079
3 *3121:D *2897:A 7.23602e-05
4 *3121:D *3011:S 8.82512e-05
5 *3121:D *277:40 7.4027e-05
*RES
1 *2964:X *3121:D 9.13875 
*END

*D_NET *39 0.000207136
*CONN
*I *3122:D I *D sky130_fd_sc_hd__dfrtp_4
*I *2966:X O *D sky130_fd_sc_hd__clkbuf_1
*CAP
1 *3122:D 2.80288e-05
2 *2966:X 2.80288e-05
3 *3122:D *2965:A0 3.50033e-05
4 *3122:D *327:10 9.71067e-05
5 *3122:D *430:14 1.89685e-05
*RES
1 *2966:X *3122:D 8.325 
*END

*D_NET *40 0.000394665
*CONN
*I *3123:D I *D sky130_fd_sc_hd__dfrtp_1
*I *2971:X O *D sky130_fd_sc_hd__clkbuf_1
*CAP
1 *3123:D 7.89335e-05
2 *2971:X 7.89335e-05
3 *3123:D *2877:A 0
4 *3123:D *2897:A 7.06865e-05
5 *3123:D *277:40 0.000117825
6 *3123:D *318:55 4.82863e-05
*RES
1 *2971:X *3123:D 9.03 
*END

*D_NET *41 0.000343909
*CONN
*I *3124:D I *D sky130_fd_sc_hd__dfrtp_1
*I *2976:X O *D sky130_fd_sc_hd__clkbuf_1
*CAP
1 *3124:D 0.000140603
2 *2976:X 0.000140603
3 *3124:D *2976:A 7.00889e-06
4 *3124:D *3124:CLK 1.34503e-05
5 *3124:D *153:24 4.22429e-05
*RES
1 *2976:X *3124:D 5.045 
*END

*D_NET *42 0.000179435
*CONN
*I *3125:D I *D sky130_fd_sc_hd__dfrtp_1
*I *2981:X O *D sky130_fd_sc_hd__clkbuf_1
*CAP
1 *3125:D 8.97177e-05
2 *2981:X 8.97177e-05
3 *3125:D *3176:CLK 0
*RES
1 *2981:X *3125:D 8.58 
*END

*D_NET *43 0.000796656
*CONN
*I *3126:D I *D sky130_fd_sc_hd__dfrtp_1
*I *2986:X O *D sky130_fd_sc_hd__clkbuf_1
*CAP
1 *3126:D 0.000187035
2 *2986:X 0.000187035
3 *3126:D *2909:A1 1.28996e-05
4 *3126:D *2961:A1 2.41307e-05
5 *3126:D *3043:A1 6.43623e-05
6 *3126:D *207:137 0.000175643
7 *3126:D *207:149 0.000111337
8 *3126:D *411:23 3.42142e-05
*RES
1 *2986:X *3126:D 11.415 
*END

*D_NET *44 0.000310289
*CONN
*I *3127:D I *D sky130_fd_sc_hd__dfrtp_1
*I *2988:X O *D sky130_fd_sc_hd__clkbuf_1
*CAP
1 *3127:D 9.92258e-05
2 *2988:X 9.92258e-05
3 *3127:D *2988:A 6.52265e-05
4 *3127:D *3127:CLK 4.66108e-05
*RES
1 *2988:X *3127:D 5.045 
*END

*D_NET *45 0.000514119
*CONN
*I *3128:D I *D sky130_fd_sc_hd__dfrtp_1
*I *2990:X O *D sky130_fd_sc_hd__clkbuf_1
*CAP
1 *3128:D 0.000172352
2 *2990:X 0.000172352
3 *3128:D *2897:A 7.4027e-05
4 *3128:D *2937:D 4.7101e-05
5 *3128:D *3128:RESET_B 4.82863e-05
6 *3128:D *195:100 0
*RES
1 *2990:X *3128:D 9.915 
*END

*D_NET *46 0.000347083
*CONN
*I *3129:D I *D sky130_fd_sc_hd__dfrtp_1
*I *2992:X O *D sky130_fd_sc_hd__clkbuf_1
*CAP
1 *3129:D 8.1681e-05
2 *2992:X 8.1681e-05
3 *3129:D *3129:RESET_B 1.22325e-05
4 *3129:D *3197:A 2.38055e-05
5 *3129:D *199:63 4.47678e-05
6 *3129:D *279:10 3.12916e-05
7 *3129:D *279:16 7.1624e-05
*RES
1 *2992:X *3129:D 9.225 
*END

*D_NET *47 0.000414352
*CONN
*I *3130:D I *D sky130_fd_sc_hd__dfrtp_1
*I *2994:X O *D sky130_fd_sc_hd__clkbuf_1
*CAP
1 *3130:D 0.000207176
2 *2994:X 0.000207176
*RES
1 *2994:X *3130:D 9.81 
*END

*D_NET *48 0.000476681
*CONN
*I *3131:D I *D sky130_fd_sc_hd__dfrtp_1
*I *2996:X O *D sky130_fd_sc_hd__clkbuf_1
*CAP
1 *3131:D 0.000109657
2 *2996:X 0.000109657
3 *3131:D *2996:A 0
4 *3131:D *3131:CLK 0.000121781
5 *3131:D *202:44 8.89751e-05
6 *3131:D *427:72 4.66108e-05
*RES
1 *2996:X *3131:D 9.67125 
*END

*D_NET *49 0.000556567
*CONN
*I *3132:D I *D sky130_fd_sc_hd__dfrtp_1
*I *2998:X O *D sky130_fd_sc_hd__clkbuf_1
*CAP
1 *3132:D 0.000227513
2 *2998:X 0.000227513
3 *3132:D *202:16 0
4 *3132:D *326:43 0.000101541
*RES
1 *2998:X *3132:D 10.86 
*END

*D_NET *50 0.00032331
*CONN
*I *3133:D I *D sky130_fd_sc_hd__dfrtp_1
*I *3000:X O *D sky130_fd_sc_hd__clkbuf_1
*CAP
1 *3133:D 0.000150897
2 *3000:X 0.000150897
3 *3133:D *3032:A 1.34124e-06
4 *3133:D *3133:CLK 2.01737e-05
*RES
1 *3000:X *3133:D 5.045 
*END

*D_NET *51 0.000196155
*CONN
*I *3134:D I *D sky130_fd_sc_hd__dfrtp_1
*I *3002:X O *D sky130_fd_sc_hd__clkbuf_1
*CAP
1 *3134:D 5.21499e-05
2 *3002:X 5.21499e-05
3 *3134:D *2937:D 9.18556e-05
*RES
1 *3002:X *3134:D 8.325 
*END

*D_NET *52 0.00088409
*CONN
*I *3135:D I *D sky130_fd_sc_hd__dfrtp_1
*I *3004:X O *D sky130_fd_sc_hd__clkbuf_1
*CAP
1 *3135:D 0.000314061
2 *3004:X 0.000314061
3 *3135:D *3004:A 4.94457e-05
4 *3135:D *351:25 0.000118527
5 *3135:D *399:14 8.4346e-05
6 *3135:D *399:16 3.64998e-06
*RES
1 *3004:X *3135:D 11.895 
*END

*D_NET *53 0.000492815
*CONN
*I *3136:D I *D sky130_fd_sc_hd__dfrtp_1
*I *3006:X O *D sky130_fd_sc_hd__clkbuf_1
*CAP
1 *3136:D 0.000204517
2 *3006:X 0.000204517
3 *3136:D *2893:A1 3.59997e-05
4 *3136:D *2893:A2 0
5 *3136:D *3168:D 0
6 *3136:D *275:27 4.77807e-05
*RES
1 *3006:X *3136:D 10.815 
*END

*D_NET *54 0.000474422
*CONN
*I *3137:D I *D sky130_fd_sc_hd__dfrtp_1
*I *3008:X O *D sky130_fd_sc_hd__clkbuf_1
*CAP
1 *3137:D 0.000126247
2 *3008:X 0.000126247
3 *3137:D *2881:A1 3.96473e-05
4 *3137:D *2900:B1 5.96365e-05
5 *3137:D *2901:B1 6.72833e-06
6 *3137:D *324:10 0.000113222
7 *3137:D *393:23 2.69443e-06
*RES
1 *3008:X *3137:D 10.065 
*END

*D_NET *55 0.000814122
*CONN
*I *3138:D I *D sky130_fd_sc_hd__dfrtp_1
*I *3010:X O *D sky130_fd_sc_hd__clkbuf_1
*CAP
1 *3138:D 0.000193079
2 *3010:X 0.000193079
3 *3138:D *2886:B 0
4 *3138:D *2906:B 0
5 *3138:D *2955:A0 6.16774e-05
6 *3138:D *2957:A0 8.53113e-06
7 *3138:D *3138:CLK 8.8266e-05
8 *3138:D *324:31 0.000182349
9 *3138:D *332:49 8.71404e-05
*RES
1 *3010:X *3138:D 11.79 
*END

*D_NET *56 0.000479072
*CONN
*I *3139:D I *D sky130_fd_sc_hd__dfrtp_1
*I *3012:X O *D sky130_fd_sc_hd__clkbuf_1
*CAP
1 *3139:D 0.000169894
2 *3012:X 0.000169894
3 *3139:D *3160:CLK 0.000116151
4 *3139:D *206:61 0
5 *3139:D *277:17 2.31329e-05
*RES
1 *3012:X *3139:D 9.72 
*END

*D_NET *57 0.000981099
*CONN
*I *3140:D I *D sky130_fd_sc_hd__dfrtp_1
*I *3014:X O *D sky130_fd_sc_hd__clkbuf_1
*CAP
1 *3140:D 0.000340575
2 *3014:X 0.000340575
3 *3140:D *3132:CLK 7.23602e-05
4 *3140:D *3140:RESET_B 0
5 *3140:D *275:70 4.82919e-05
6 *3140:D *326:43 0.000179297
7 *3140:D *339:20 0
*RES
1 *3014:X *3140:D 13.305 
*END

*D_NET *58 0.00047879
*CONN
*I *3141:D I *D sky130_fd_sc_hd__dfrtp_1
*I *3016:X O *D sky130_fd_sc_hd__clkbuf_1
*CAP
1 *3141:D 0.000171944
2 *3016:X 0.000171944
3 *3141:D *3016:A 0
4 *3141:D *3141:CLK 4.83113e-05
5 *3141:D *332:29 8.65905e-05
*RES
1 *3016:X *3141:D 9.58875 
*END

*D_NET *59 0.000868114
*CONN
*I *3142:D I *D sky130_fd_sc_hd__dfrtp_1
*I *3018:X O *D sky130_fd_sc_hd__clkbuf_1
*CAP
1 *3142:D 0.000164345
2 *3018:X 0.000164345
3 *3142:D *2895:A1 0.000180675
4 *3142:D *3018:A 2.16833e-05
5 *3142:D *198:33 0.000180675
6 *3142:D *278:8 0.00015639
*RES
1 *3018:X *3142:D 11.175 
*END

*D_NET *60 0.000324894
*CONN
*I *3143:D I *D sky130_fd_sc_hd__dfrtp_1
*I *3020:X O *D sky130_fd_sc_hd__clkbuf_1
*CAP
1 *3143:D 9.09265e-05
2 *3020:X 9.09265e-05
3 *3143:D *2925:B1 4.99619e-05
4 *3143:D *321:12 8.45475e-05
5 *3143:D *321:14 8.53113e-06
6 *3143:D *423:31 0
*RES
1 *3020:X *3143:D 8.775 
*END

*D_NET *61 0.000408402
*CONN
*I *3144:D I *D sky130_fd_sc_hd__dfrtp_1
*I *3022:X O *D sky130_fd_sc_hd__clkbuf_1
*CAP
1 *3144:D 0.000194849
2 *3022:X 0.000194849
3 *3144:D *3144:CLK 1.87038e-05
*RES
1 *3022:X *3144:D 9.825 
*END

*D_NET *62 0.000276974
*CONN
*I *3145:D I *D sky130_fd_sc_hd__dfrtp_1
*I *3024:X O *D sky130_fd_sc_hd__clkbuf_1
*CAP
1 *3145:D 9.87071e-05
2 *3024:X 9.87071e-05
3 *3145:D *3024:A 3.99879e-05
4 *3145:D *3145:CLK 3.95724e-05
*RES
1 *3024:X *3145:D 5.045 
*END

*D_NET *63 0.00047666
*CONN
*I *3146:D I *D sky130_fd_sc_hd__dfrtp_1
*I *3026:X O *D sky130_fd_sc_hd__clkbuf_1
*CAP
1 *3146:D 9.17355e-05
2 *3026:X 9.17355e-05
3 *3146:D *3154:D 5.47609e-05
4 *3146:D *203:125 4.99619e-05
5 *3146:D *281:10 0.000158297
6 *3146:D *281:23 8.53113e-06
7 *3146:D *320:8 2.16389e-05
*RES
1 *3026:X *3146:D 9.54 
*END

*D_NET *64 0.000461564
*CONN
*I *3147:D I *D sky130_fd_sc_hd__dfrtp_1
*I *3028:X O *D sky130_fd_sc_hd__clkbuf_1
*CAP
1 *3147:D 0.000167497
2 *3028:X 0.000167497
3 *3147:D *318:24 0.00012657
*RES
1 *3028:X *3147:D 9.72 
*END

*D_NET *65 0.000210478
*CONN
*I *3148:D I *D sky130_fd_sc_hd__dfrtp_1
*I *3030:X O *D sky130_fd_sc_hd__clkbuf_1
*CAP
1 *3148:D 8.2156e-05
2 *3030:X 8.2156e-05
3 *3148:D *3030:A 4.61658e-05
*RES
1 *3030:X *3148:D 8.58 
*END

*D_NET *66 0.000432406
*CONN
*I *3149:D I *D sky130_fd_sc_hd__dfrtp_1
*I *3032:X O *D sky130_fd_sc_hd__clkbuf_1
*CAP
1 *3149:D 5.61566e-05
2 *3032:X 5.61566e-05
3 *3149:D *2947:C 6.43251e-05
4 *3149:D *3149:CLK 0.000255767
*RES
1 *3032:X *3149:D 5.495 
*END

*D_NET *67 0.000413542
*CONN
*I *3150:D I *D sky130_fd_sc_hd__dfrtp_1
*I *3034:X O *D sky130_fd_sc_hd__clkbuf_1
*CAP
1 *3150:D 0.000159051
2 *3034:X 0.000159051
3 *3150:D *275:37 9.54399e-05
4 *3150:D *344:37 0
*RES
1 *3034:X *3150:D 9.465 
*END

*D_NET *68 0.000240474
*CONN
*I *3151:D I *D sky130_fd_sc_hd__dfrtp_1
*I *3036:X O *D sky130_fd_sc_hd__clkbuf_1
*CAP
1 *3151:D 9.99691e-05
2 *3036:X 9.99691e-05
3 *3151:D *3036:A 4.05358e-05
4 *3151:D *3183:CLK 0
*RES
1 *3036:X *3151:D 8.88 
*END

*D_NET *69 0.000480358
*CONN
*I *3152:D I *D sky130_fd_sc_hd__dfrtp_1
*I *3038:X O *D sky130_fd_sc_hd__clkbuf_1
*CAP
1 *3152:D 0.000139063
2 *3038:X 0.000139063
3 *3152:D *3152:CLK 5.83121e-06
4 *3152:D *3184:CLK 0.00010748
5 *3152:D *203:14 8.89208e-05
6 *3152:D *340:22 0
*RES
1 *3038:X *3152:D 10.23 
*END

*D_NET *70 0.000612736
*CONN
*I *3153:D I *D sky130_fd_sc_hd__dfrtp_1
*I *3040:X O *D sky130_fd_sc_hd__clkbuf_1
*CAP
1 *3153:D 0.000185543
2 *3040:X 0.000185543
3 *3153:D *2921:A2 3.89366e-05
4 *3153:D *3153:CLK 8.82496e-05
5 *3153:D *346:67 7.03276e-05
6 *3153:D *409:12 4.41356e-05
*RES
1 *3040:X *3153:D 10.26 
*END

*D_NET *71 0.0013068
*CONN
*I *3154:D I *D sky130_fd_sc_hd__dfrtp_1
*I *3042:X O *D sky130_fd_sc_hd__clkbuf_1
*CAP
1 *3154:D 0.000294468
2 *3042:X 0.000294468
3 *3154:D *182:12 0.00013493
4 *3154:D *281:23 0.000123755
5 *3154:D *320:8 0.000404416
6 *3146:D *3154:D 5.47609e-05
*RES
1 *3042:X *3154:D 14.07 
*END

*D_NET *72 0.000387804
*CONN
*I *3155:D I *D sky130_fd_sc_hd__dfrtp_1
*I *3044:X O *D sky130_fd_sc_hd__clkbuf_1
*CAP
1 *3155:D 0.000164952
2 *3044:X 0.000164952
3 *3155:D *3155:CLK 3.32922e-05
4 *3155:D *340:8 2.46089e-05
*RES
1 *3044:X *3155:D 9.36375 
*END

*D_NET *73 0.00057438
*CONN
*I *3156:D I *D sky130_fd_sc_hd__dfrtp_1
*I *3046:X O *D sky130_fd_sc_hd__clkbuf_1
*CAP
1 *3156:D 0.00024928
2 *3046:X 0.00024928
3 *3156:D *3029:A1 1.01661e-05
4 *3156:D *274:16 3.89528e-05
5 *3156:D *326:14 2.67022e-05
*RES
1 *3046:X *3156:D 10.5 
*END

*D_NET *74 0.000435096
*CONN
*I *3157:D I *D sky130_fd_sc_hd__dfrtp_1
*I *3048:X O *D sky130_fd_sc_hd__clkbuf_1
*CAP
1 *3157:D 0.000113322
2 *3048:X 0.000113322
3 *3157:D *2889:B1 0.000120186
4 *3157:D *3047:S 8.8266e-05
5 *3157:D *342:56 0
*RES
1 *3048:X *3157:D 9.375 
*END

*D_NET *75 0.000427192
*CONN
*I *3158:D I *D sky130_fd_sc_hd__dfrtp_1
*I *3050:X O *D sky130_fd_sc_hd__clkbuf_1
*CAP
1 *3158:D 0.000174563
2 *3050:X 0.000174563
3 *3158:D *198:29 2.75145e-05
4 *3158:D *275:37 0
5 *3158:D *341:10 0
6 *3158:D *344:12 5.05521e-05
*RES
1 *3050:X *3158:D 9.825 
*END

*D_NET *76 0.00023865
*CONN
*I *3159:D I *D sky130_fd_sc_hd__dfrtp_1
*I *3052:X O *D sky130_fd_sc_hd__clkbuf_1
*CAP
1 *3159:D 0.000119325
2 *3052:X 0.000119325
*RES
1 *3052:X *3159:D 5.045 
*END

*D_NET *77 0.000266957
*CONN
*I *3160:D I *D sky130_fd_sc_hd__dfrtp_1
*I *3054:X O *D sky130_fd_sc_hd__clkbuf_1
*CAP
1 *3160:D 9.20727e-05
2 *3054:X 9.20727e-05
3 *3160:D *2917:D 2.11084e-05
4 *3160:D *3054:A 6.17032e-05
5 *3160:D *3160:CLK 0
*RES
1 *3054:X *3160:D 9.03 
*END

*D_NET *78 0.000375395
*CONN
*I *3161:D I *D sky130_fd_sc_hd__dfrtp_1
*I *3056:X O *D sky130_fd_sc_hd__clkbuf_1
*CAP
1 *3161:D 0.000110109
2 *3056:X 0.000110109
3 *3161:D *3056:A 4.77719e-05
4 *3161:D *3087:S 3.64226e-05
5 *3161:D *3161:CLK 2.10214e-05
6 *3161:D *3161:RESET_B 4.99619e-05
*RES
1 *3056:X *3161:D 5.39 
*END

*D_NET *79 0.000492162
*CONN
*I *3162:D I *D sky130_fd_sc_hd__dfrtp_1
*I *3058:X O *D sky130_fd_sc_hd__clkbuf_1
*CAP
1 *3162:D 0.000196435
2 *3058:X 0.000196435
3 *3162:D *3057:S 9.92913e-05
4 *3162:D *280:78 0
5 *3162:D *348:77 0
*RES
1 *3058:X *3162:D 10.755 
*END

*D_NET *80 0.000505997
*CONN
*I *3163:D I *D sky130_fd_sc_hd__dfrtp_1
*I *3060:X O *D sky130_fd_sc_hd__clkbuf_1
*CAP
1 *3163:D 0.000155716
2 *3060:X 0.000155716
3 *3163:D *3060:A 9.91257e-05
4 *3163:D *3163:RESET_B 9.54399e-05
5 *3163:D *277:103 0
*RES
1 *3060:X *3163:D 9.81 
*END

*D_NET *81 0.000379202
*CONN
*I *3164:D I *D sky130_fd_sc_hd__dfrtp_1
*I *3062:X O *D sky130_fd_sc_hd__clkbuf_1
*CAP
1 *3164:D 0.000133778
2 *3062:X 0.000133778
3 *3164:D *3055:S 0
4 *3164:D *3062:A 1.85674e-05
5 *3164:D *3172:RESET_B 0
6 *3164:D *275:47 9.30787e-05
*RES
1 *3062:X *3164:D 9.45 
*END

*D_NET *82 0.000749303
*CONN
*I *3165:D I *D sky130_fd_sc_hd__dfrtp_1
*I *3064:X O *D sky130_fd_sc_hd__clkbuf_1
*CAP
1 *3165:D 0.000196129
2 *3064:X 0.000196129
3 *3165:D *2938:B1 0.000141006
4 *3165:D *3189:RESET_B 5.84378e-05
5 *3165:D *206:110 0.000157602
*RES
1 *3064:X *3165:D 11.16 
*END

*D_NET *83 0.000357203
*CONN
*I *3166:D I *D sky130_fd_sc_hd__dfrtp_1
*I *3066:X O *D sky130_fd_sc_hd__clkbuf_1
*CAP
1 *3166:D 0.000128985
2 *3066:X 0.000128985
3 *3166:D *3065:S 5.30673e-05
4 *3166:D *327:10 4.61658e-05
5 *3166:D *336:10 0
*RES
1 *3066:X *3166:D 9.375 
*END

*D_NET *84 0.000276885
*CONN
*I *3167:D I *D sky130_fd_sc_hd__dfrtp_1
*I *3068:X O *D sky130_fd_sc_hd__clkbuf_1
*CAP
1 *3167:D 0.000129772
2 *3068:X 0.000129772
3 *3167:D *3068:A 7.00889e-06
4 *3167:D *279:52 1.03323e-05
*RES
1 *3068:X *3167:D 5.15 
*END

*D_NET *85 0.000835899
*CONN
*I *3168:D I *D sky130_fd_sc_hd__dfrtp_1
*I *3070:X O *D sky130_fd_sc_hd__clkbuf_1
*CAP
1 *3168:D 0.000359787
2 *3070:X 0.000359787
3 *3168:D *2947:B 0
4 *3168:D *3168:CLK 5.68409e-05
5 *3168:D *202:27 0
6 *3168:D *322:28 5.0751e-05
7 *3168:D *424:81 8.73389e-06
8 *3136:D *3168:D 0
*RES
1 *3070:X *3168:D 12.72 
*END

*D_NET *86 0.000370722
*CONN
*I *3169:D I *D sky130_fd_sc_hd__dfrtp_1
*I *3072:X O *D sky130_fd_sc_hd__clkbuf_1
*CAP
1 *3169:D 0.000137654
2 *3072:X 0.000137654
3 *3169:D *3103:S 4.33358e-05
4 *3169:D *3169:CLK 5.20778e-05
5 *3169:D *345:8 0
*RES
1 *3072:X *3169:D 5.045 
*END

*D_NET *87 0.000422634
*CONN
*I *3170:D I *D sky130_fd_sc_hd__dfrtp_1
*I *3074:X O *D sky130_fd_sc_hd__clkbuf_1
*CAP
1 *3170:D 0.000160618
2 *3074:X 0.000160618
3 *3170:D *3170:RESET_B 6.69608e-06
4 *3170:D *348:104 9.47017e-05
*RES
1 *3074:X *3170:D 10.065 
*END

*D_NET *88 0.000306127
*CONN
*I *3171:D I *D sky130_fd_sc_hd__dfrtp_1
*I *3076:X O *D sky130_fd_sc_hd__clkbuf_1
*CAP
1 *3171:D 0.000105572
2 *3076:X 0.000105572
3 *3171:D *3076:A 3.86607e-05
4 *3171:D *202:73 0
5 *3171:D *277:123 5.63214e-05
*RES
1 *3076:X *3171:D 8.91375 
*END

*D_NET *89 0.000358287
*CONN
*I *3172:D I *D sky130_fd_sc_hd__dfrtp_1
*I *3078:X O *D sky130_fd_sc_hd__clkbuf_1
*CAP
1 *3172:D 0.000134066
2 *3078:X 0.000134066
3 *3172:D *2973:A 0
4 *3172:D *3172:CLK 5.38409e-05
5 *3172:D *194:20 1.58555e-05
6 *3172:D *275:70 2.04583e-05
*RES
1 *3078:X *3172:D 9.225 
*END

*D_NET *90 0.000434182
*CONN
*I *3173:D I *D sky130_fd_sc_hd__dfrtp_1
*I *3080:X O *D sky130_fd_sc_hd__clkbuf_1
*CAP
1 *3173:D 0.000141082
2 *3080:X 0.000141082
3 *3173:D *3080:A 5.21046e-05
4 *3173:D *3181:CLK 0
5 *3173:D *3237:A 9.99135e-05
6 *3173:D *319:16 0
7 *3173:D *319:22 0
*RES
1 *3080:X *3173:D 9.81 
*END

*D_NET *91 0.00037923
*CONN
*I *3174:D I *D sky130_fd_sc_hd__dfrtp_1
*I *3082:X O *D sky130_fd_sc_hd__clkbuf_1
*CAP
1 *3174:D 0.000121965
2 *3082:X 0.000121965
3 *3174:D *198:104 8.8266e-05
4 *3174:D *278:20 0
5 *3174:D *328:14 4.70343e-05
*RES
1 *3082:X *3174:D 9.375 
*END

*D_NET *92 0.000345972
*CONN
*I *3175:D I *D sky130_fd_sc_hd__dfrtp_1
*I *3084:X O *D sky130_fd_sc_hd__clkbuf_1
*CAP
1 *3175:D 0.000139569
2 *3084:X 0.000139569
3 *3175:D *3084:A 3.93106e-05
4 *3175:D *3175:CLK 2.75229e-05
*RES
1 *3084:X *3175:D 5.405 
*END

*D_NET *93 0.000492522
*CONN
*I *3176:D I *D sky130_fd_sc_hd__dfrtp_1
*I *3086:X O *D sky130_fd_sc_hd__clkbuf_1
*CAP
1 *3176:D 0.000214823
2 *3086:X 0.000214823
3 *3176:D *340:8 6.28765e-05
*RES
1 *3086:X *3176:D 10.065 
*END

*D_NET *94 0.000274454
*CONN
*I *3177:D I *D sky130_fd_sc_hd__dfrtp_1
*I *3088:X O *D sky130_fd_sc_hd__clkbuf_1
*CAP
1 *3177:D 8.83636e-05
2 *3088:X 8.83636e-05
3 *3177:D *3177:CLK 4.82863e-05
4 *3177:D *3177:RESET_B 4.94404e-05
*RES
1 *3088:X *3177:D 8.775 
*END

*D_NET *95 0.00188173
*CONN
*I *3178:D I *D sky130_fd_sc_hd__dfrtp_1
*I *3090:X O *D sky130_fd_sc_hd__clkbuf_1
*CAP
1 *3178:D 0.000779056
2 *3090:X 0.000779056
3 *3178:D *3106:A 7.35813e-05
4 *3178:D *3178:CLK 7.81914e-05
5 *3178:D *3218:A 0.000171845
*RES
1 *3090:X *3178:D 17.07 
*END

*D_NET *96 0.000495931
*CONN
*I *3179:D I *D sky130_fd_sc_hd__dfrtp_1
*I *3092:X O *D sky130_fd_sc_hd__clkbuf_1
*CAP
1 *3179:D 0.000206056
2 *3092:X 0.000206056
3 *3179:D *2909:B1 4.99619e-05
4 *3179:D *3092:A 3.81908e-06
5 *3179:D *3187:CLK 3.00381e-05
6 *3179:D *3187:RESET_B 0
7 *3179:D *276:99 0
*RES
1 *3092:X *3179:D 10.335 
*END

*D_NET *97 0.00104525
*CONN
*I *3180:D I *D sky130_fd_sc_hd__dfrtp_1
*I *3094:X O *D sky130_fd_sc_hd__clkbuf_1
*CAP
1 *3180:D 0.000419986
2 *3094:X 0.000419986
3 *3180:D *3188:CLK 0.000161203
4 *3180:D *3188:RESET_B 0
5 *3180:D *307:10 0
6 *3180:D *325:12 4.4073e-05
7 *3180:D *339:56 0
*RES
1 *3094:X *3180:D 13.26 
*END

*D_NET *98 0.00135535
*CONN
*I *3181:D I *D sky130_fd_sc_hd__dfrtp_1
*I *3096:X O *D sky130_fd_sc_hd__clkbuf_1
*CAP
1 *3181:D 0.00043698
2 *3096:X 0.00043698
3 *3181:D *2918:B1 7.23533e-05
4 *3181:D *3075:S 0.000409036
5 *3181:D *3269:A 0
*RES
1 *3096:X *3181:D 13.3988 
*END

*D_NET *99 0.00058906
*CONN
*I *3182:D I *D sky130_fd_sc_hd__dfrtp_1
*I *3098:X O *D sky130_fd_sc_hd__clkbuf_1
*CAP
1 *3182:D 8.69511e-05
2 *3098:X 8.69511e-05
3 *3182:D *2935:B1 0.00015997
4 *3182:D *206:150 0.000124007
5 *3182:D *278:28 6.97034e-05
6 *3182:D *327:10 6.14776e-05
*RES
1 *3098:X *3182:D 10.23 
*END

*D_NET *100 0.000274004
*CONN
*I *3183:D I *D sky130_fd_sc_hd__dfrtp_1
*I *3100:X O *D sky130_fd_sc_hd__clkbuf_1
*CAP
1 *3183:D 0.000109352
2 *3100:X 0.000109352
3 *3183:D *3183:CLK 4.82919e-05
4 *3183:D *347:80 7.00889e-06
*RES
1 *3100:X *3183:D 5.045 
*END

*D_NET *101 0.000781688
*CONN
*I *3184:D I *D sky130_fd_sc_hd__dfrtp_1
*I *3102:X O *D sky130_fd_sc_hd__clkbuf_1
*CAP
1 *3184:D 0.000265174
2 *3102:X 0.000265174
3 *3184:D *3037:A0 6.23462e-05
4 *3184:D *3038:A 7.00889e-06
5 *3184:D *3102:A 4.05358e-05
6 *3184:D *3144:RESET_B 5.20968e-05
7 *3184:D *3184:RESET_B 4.80285e-05
8 *3184:D *207:118 0
9 *3184:D *207:137 0
10 *3184:D *325:20 0
11 *3184:D *339:91 4.13249e-05
*RES
1 *3102:X *3184:D 12.36 
*END

*D_NET *102 0.000279523
*CONN
*I *3185:D I *D sky130_fd_sc_hd__dfrtp_1
*I *3104:X O *D sky130_fd_sc_hd__clkbuf_1
*CAP
1 *3185:D 0.000109567
2 *3104:X 0.000109567
3 *3185:D *3103:S 4.87317e-05
4 *3185:D *3104:A 1.16578e-05
*RES
1 *3104:X *3185:D 5.045 
*END

*D_NET *103 0.000310927
*CONN
*I *3186:D I *D sky130_fd_sc_hd__dfrtp_1
*I *3106:X O *D sky130_fd_sc_hd__clkbuf_1
*CAP
1 *3186:D 0.000110753
2 *3106:X 0.000110753
3 *3186:D *3186:CLK 4.25452e-05
4 *3186:D *320:8 3.86529e-05
5 *3186:D *384:40 8.22234e-06
*RES
1 *3106:X *3186:D 8.91375 
*END

*D_NET *104 0.000368704
*CONN
*I *3187:D I *D sky130_fd_sc_hd__dfrtp_1
*I *3108:X O *D sky130_fd_sc_hd__clkbuf_1
*CAP
1 *3187:D 0.000121905
2 *3108:X 0.000121905
3 *3187:D *3092:A 0.000124895
*RES
1 *3108:X *3187:D 9.465 
*END

*D_NET *105 0.00165581
*CONN
*I *3188:D I *D sky130_fd_sc_hd__dfrtp_1
*I *3110:X O *D sky130_fd_sc_hd__clkbuf_1
*CAP
1 *3188:D 0.000564941
2 *3110:X 0.000564941
3 *3188:D *2982:B 7.00889e-06
4 *3188:D *2983:A 2.67022e-05
5 *3188:D *315:8 0
6 *3188:D *340:22 0.000403952
7 *3188:D *340:30 8.8266e-05
*RES
1 *3110:X *3188:D 18.015 
*END

*D_NET *106 0.00131671
*CONN
*I *3189:D I *D sky130_fd_sc_hd__dfrtp_1
*I *3112:X O *D sky130_fd_sc_hd__clkbuf_1
*CAP
1 *3189:D 0.000430416
2 *3112:X 0.000430416
3 *3189:D *3112:A 3.86607e-05
4 *3189:D *3165:CLK 0.000256575
5 *3189:D *202:73 0.000160641
6 *3189:D *206:110 0
*RES
1 *3112:X *3189:D 13.3988 
*END

*D_NET *107 0.000461592
*CONN
*I *3190:D I *D sky130_fd_sc_hd__dfrtp_1
*I *3114:X O *D sky130_fd_sc_hd__clkbuf_1
*CAP
1 *3190:D 0.000160316
2 *3114:X 0.000160316
3 *3190:D *2935:B1 0
4 *3190:D *3055:S 1.7386e-05
5 *3190:D *3190:CLK 3.86529e-05
6 *3190:D *206:150 8.49205e-05
*RES
1 *3114:X *3190:D 9.675 
*END

*D_NET *108 0.000652672
*CONN
*I *2870:B1 I *D sky130_fd_sc_hd__a21o_1
*I *2869:Y O *D sky130_fd_sc_hd__o21ai_1
*CAP
1 *2870:B1 0.000180246
2 *2869:Y 0.000180246
3 *2870:B1 *2869:A1 0
4 *2870:B1 *2869:B1 6.63502e-05
5 *2870:B1 *3047:S 4.77757e-05
6 *2870:B1 *194:108 0
7 *2870:B1 *277:90 8.52845e-05
8 *2870:B1 *427:32 3.2199e-05
9 *2870:B1 *427:70 6.05715e-05
*RES
1 *2869:Y *2870:B1 11.205 
*END

*D_NET *109 0.00412146
*CONN
*I *2877:A I *D sky130_fd_sc_hd__and4_1
*I *2870:X O *D sky130_fd_sc_hd__a21o_1
*CAP
1 *2877:A 0.000981436
2 *2870:X 0.000981436
3 *2877:A *2889:B1 0.000264222
4 *2877:A *2897:A 0.000411516
5 *2877:A *2976:A 1.08732e-05
6 *2877:A *3047:S 0.00013427
7 *2877:A *3124:CLK 0.000287898
8 *2877:A *195:115 0.000132697
9 *2877:A *277:40 0
10 *2877:A *342:49 0.000334617
11 *2877:A *342:56 0.000321297
12 *2877:A *343:37 3.86607e-05
13 *2877:A *424:28 8.8266e-05
14 *2877:A *427:32 0.00013427
15 *3123:D *2877:A 0
*RES
1 *2870:X *2877:A 34.245 
*END

*D_NET *110 0.000253511
*CONN
*I *2872:B1 I *D sky130_fd_sc_hd__a21o_1
*I *2871:Y O *D sky130_fd_sc_hd__o21ai_1
*CAP
1 *2872:B1 4.94978e-05
2 *2871:Y 4.94978e-05
3 *2872:B1 *2871:A1 7.63204e-05
4 *2872:B1 *198:142 7.81954e-05
*RES
1 *2871:Y *2872:B1 8.835 
*END

*D_NET *111 0.00355951
*CONN
*I *2877:B I *D sky130_fd_sc_hd__and4_1
*I *2872:X O *D sky130_fd_sc_hd__a21o_1
*CAP
1 *2877:B 0.000572878
2 *2872:X 0.000572878
3 *2877:B *2997:S 0.000222231
4 *2877:B *3128:CLK 0.000170911
5 *2877:B *3200:A 4.97915e-05
6 *2877:B *194:51 4.19797e-05
7 *2877:B *195:29 0.00030856
8 *2877:B *195:100 0.000549139
9 *2877:B *195:115 0.000298449
10 *2877:B *275:27 0.00011272
11 *2877:B *344:37 0.00065997
*RES
1 *2872:X *2877:B 25.875 
*END

*D_NET *112 0.000620981
*CONN
*I *2874:B1 I *D sky130_fd_sc_hd__a21o_1
*I *2873:Y O *D sky130_fd_sc_hd__o21ai_1
*CAP
1 *2874:B1 0.000147689
2 *2873:Y 0.000147689
3 *2874:B1 *2873:B1 5.06989e-05
4 *2874:B1 *2874:A1 0.000120655
5 *2874:B1 *2874:A2 9.35611e-05
6 *2874:B1 *424:28 2.30292e-05
7 *2874:B1 *424:41 3.76577e-05
*RES
1 *2873:Y *2874:B1 6.425 
*END

*D_NET *113 0.000301518
*CONN
*I *2877:C I *D sky130_fd_sc_hd__and4_1
*I *2874:X O *D sky130_fd_sc_hd__a21o_1
*CAP
1 *2877:C 6.96035e-05
2 *2874:X 6.96035e-05
3 *2877:C *424:28 0.000162311
*RES
1 *2874:X *2877:C 4.685 
*END

*D_NET *114 0.000858962
*CONN
*I *2876:B1 I *D sky130_fd_sc_hd__a21o_1
*I *2875:Y O *D sky130_fd_sc_hd__o21ai_1
*CAP
1 *2876:B1 0.000313734
2 *2875:Y 0.000313734
3 *2876:B1 *2876:A1 0.000111308
4 *2876:B1 *153:24 0
5 *2876:B1 *430:26 0.000120186
*RES
1 *2875:Y *2876:B1 12.57 
*END

*D_NET *115 0.00167932
*CONN
*I *2877:D I *D sky130_fd_sc_hd__and4_1
*I *2876:X O *D sky130_fd_sc_hd__a21o_1
*CAP
1 *2877:D 0.000601756
2 *2876:X 0.000601756
3 *2877:D *2907:B 0
4 *2877:D *153:24 0
5 *2877:D *424:28 0.000475808
*RES
1 *2876:X *2877:D 17.715 
*END

*D_NET *116 0.00271655
*CONN
*I *2887:B I *D sky130_fd_sc_hd__and3_1
*I *2877:X O *D sky130_fd_sc_hd__and4_1
*CAP
1 *2887:B 0.000970686
2 *2877:X 0.000970686
3 *2887:B *2887:C 2.65814e-06
4 *2887:B *2949:B 0.000181361
5 *2887:B *2949:D 0.000203762
6 *2887:B *2963:A0 2.4997e-05
7 *2887:B *3202:A 0
8 *2887:B *3203:A 1.83847e-05
9 *2887:B *153:24 0
10 *2887:B *199:102 0
11 *2887:B *199:148 0
12 *2887:B *344:37 4.38278e-05
13 *2887:B *424:28 0.000188727
14 *2887:B *429:18 0.000111462
*RES
1 *2877:X *2887:B 22.23 
*END

*D_NET *117 0.000464963
*CONN
*I *2879:B1 I *D sky130_fd_sc_hd__a21o_1
*I *2878:Y O *D sky130_fd_sc_hd__o21ai_1
*CAP
1 *2879:B1 7.07003e-05
2 *2878:Y 7.07003e-05
3 *2879:B1 *2879:A1 2.01829e-05
4 *2879:B1 *2879:A2 6.99026e-05
5 *2879:B1 *397:14 6.72833e-06
6 *2879:B1 *429:61 0.000226749
*RES
1 *2878:Y *2879:B1 5.645 
*END

*D_NET *118 0.00292715
*CONN
*I *2886:A I *D sky130_fd_sc_hd__and4_1
*I *2879:X O *D sky130_fd_sc_hd__a21o_1
*CAP
1 *2886:A 0.00102164
2 *2879:X 0.00102164
3 *2886:A *2886:D 0.000157919
4 *2886:A *2887:C 0.000122332
5 *2886:A *2926:A 4.77757e-05
6 *2886:A *2960:A 1.79098e-05
7 *2886:A *2994:A 8.4059e-05
8 *2886:A *280:44 0.000157624
9 *2886:A *332:97 0
10 *2886:A *348:48 2.3228e-05
11 *2886:A *427:32 0.00027303
*RES
1 *2879:X *2886:A 23.175 
*END

*D_NET *119 0.00180669
*CONN
*I *2881:B1 I *D sky130_fd_sc_hd__a21o_1
*I *2880:Y O *D sky130_fd_sc_hd__o21ai_1
*CAP
1 *2881:B1 0.000310291
2 *2880:Y 0.000310291
3 *2881:B1 *2880:A1 0.000177017
4 *2881:B1 *2881:A2 3.57349e-05
5 *2881:B1 *2901:A1 0.000111293
6 *2881:B1 *2901:B1 7.08331e-05
7 *2881:B1 *273:76 0
8 *2881:B1 *320:14 8.35118e-05
9 *2881:B1 *324:10 0.00061166
10 *2881:B1 *425:20 4.82863e-05
11 *2881:B1 *425:49 4.77769e-05
*RES
1 *2880:Y *2881:B1 15.945 
*END

*D_NET *120 0.00482158
*CONN
*I *2886:B I *D sky130_fd_sc_hd__and4_1
*I *2881:X O *D sky130_fd_sc_hd__a21o_1
*CAP
1 *2886:B 0.00110097
2 *2881:X 0.00110097
3 *2886:B *2886:C 0.000196048
4 *2886:B *2886:D 0.000232403
5 *2886:B *2902:B1 0
6 *2886:B *2906:B 8.08153e-06
7 *2886:B *2957:A0 0
8 *2886:B *2957:A1 0.000216637
9 *2886:B *2958:A 0
10 *2886:B *3138:RESET_B 0.000114492
11 *2886:B *163:20 7.06865e-05
12 *2886:B *184:16 5.23093e-05
13 *2886:B *273:76 0.000263015
14 *2886:B *320:14 1.08036e-05
15 *2886:B *332:97 0
16 *2886:B *402:31 0.000334396
17 *2886:B *425:49 4.80285e-05
18 *2886:B *425:73 0.000630491
19 *2886:B *426:23 0
20 *2886:B *426:38 0.000419913
21 *2886:B *426:59 2.23407e-05
22 *3138:D *2886:B 0
*RES
1 *2881:X *2886:B 33.105 
*END

*D_NET *121 0.000558022
*CONN
*I *2883:B1 I *D sky130_fd_sc_hd__a21o_1
*I *2882:Y O *D sky130_fd_sc_hd__o21ai_1
*CAP
1 *2883:B1 0.000156664
2 *2882:Y 0.000156664
3 *2883:B1 *2882:A1 3.6227e-05
4 *2883:B1 *2883:A1 0.000132821
5 *2883:B1 *2883:A2 4.00541e-06
6 *2883:B1 *3199:A 1.29826e-05
7 *2883:B1 *426:59 5.86575e-05
*RES
1 *2882:Y *2883:B1 10.725 
*END

*D_NET *122 0.000458345
*CONN
*I *2886:C I *D sky130_fd_sc_hd__and4_1
*I *2883:X O *D sky130_fd_sc_hd__a21o_1
*CAP
1 *2886:C 0.000120641
2 *2883:X 0.000120641
3 *2886:C *2886:D 2.10152e-05
4 *2886:B *2886:C 0.000196048
*RES
1 *2883:X *2886:C 5.375 
*END

*D_NET *123 0.00120587
*CONN
*I *2885:B1 I *D sky130_fd_sc_hd__a21o_1
*I *2884:Y O *D sky130_fd_sc_hd__o21ai_1
*CAP
1 *2885:B1 0.00028533
2 *2884:Y 0.00028533
3 *2885:B1 *2884:A1 0.000132089
4 *2885:B1 *2885:A1 1.16578e-05
5 *2885:B1 *2953:A1 7.58604e-05
6 *2885:B1 *2988:A 7.70631e-05
7 *2885:B1 *163:20 0
8 *2885:B1 *281:143 0.000155497
9 *2885:B1 *391:16 0.000183043
*RES
1 *2884:Y *2885:B1 13.155 
*END

*D_NET *124 0.00352094
*CONN
*I *2886:D I *D sky130_fd_sc_hd__and4_1
*I *2885:X O *D sky130_fd_sc_hd__a21o_1
*CAP
1 *2886:D 0.000790565
2 *2885:X 0.000790565
3 *2886:D *2883:A1 1.56428e-05
4 *2886:D *2883:A2 4.66108e-05
5 *2886:D *2902:B1 0.000156013
6 *2886:D *2926:A 0.000122521
7 *2886:D *3199:A 0.000195918
8 *2886:D *163:20 0.000421466
9 *2886:D *273:114 4.1977e-05
10 *2886:D *426:38 0.000499076
11 *2886:D *426:59 2.92496e-05
12 *2886:A *2886:D 0.000157919
13 *2886:B *2886:D 0.000232403
14 *2886:C *2886:D 2.10152e-05
*RES
1 *2885:X *2886:D 27.54 
*END

*D_NET *125 0.00449538
*CONN
*I *2887:C I *D sky130_fd_sc_hd__and3_1
*I *2886:X O *D sky130_fd_sc_hd__and4_1
*CAP
1 *2887:C 0.00131409
2 *2886:X 0.00131409
3 *2887:C *2888:A 0.000285202
4 *2887:C *2898:A1 0.000122331
5 *2887:C *3118:CLK 5.16418e-05
6 *2887:C *3141:CLK 0.000702417
7 *2887:C *3141:RESET_B 5.01576e-05
8 *2887:C *280:10 0.000296081
9 *2887:C *280:44 0.000187766
10 *2887:C *332:97 0
11 *2887:C *405:8 4.66108e-05
12 *2886:A *2887:C 0.000122332
13 *2887:B *2887:C 2.65814e-06
*RES
1 *2886:X *2887:C 29.61 
*END

*D_NET *126 0.001629
*CONN
*I *2888:A I *D sky130_fd_sc_hd__buf_1
*I *2887:X O *D sky130_fd_sc_hd__and3_1
*CAP
1 *2888:A 0.000517241
2 *2887:X 0.000517241
3 *2888:A *3016:A 0
4 *2888:A *3141:CLK 0.000142661
5 *2888:A *327:27 0.000136292
6 *2888:A *335:10 3.03684e-05
7 *2887:C *2888:A 0.000285202
*RES
1 *2887:X *2888:A 17.895 
*END

*D_NET *127 0.000240193
*CONN
*I *2890:B1 I *D sky130_fd_sc_hd__a21o_1
*I *2889:Y O *D sky130_fd_sc_hd__o21ai_1
*CAP
1 *2890:B1 6.2517e-05
2 *2889:Y 6.2517e-05
3 *2890:B1 *194:108 0.000115159
*RES
1 *2889:Y *2890:B1 8.58 
*END

*D_NET *128 0.00461244
*CONN
*I *2897:A I *D sky130_fd_sc_hd__and4_1
*I *2890:X O *D sky130_fd_sc_hd__a21o_1
*CAP
1 *2897:A 0.00128938
2 *2890:X 0.00128938
3 *2897:A *2873:B1 6.77296e-05
4 *2897:A *2897:C 2.69217e-05
5 *2897:A *3128:RESET_B 0.000101325
6 *2897:A *194:93 0.00084312
7 *2897:A *195:100 0
8 *2897:A *195:115 0
9 *2897:A *277:17 9.85258e-05
10 *2897:A *277:30 2.14495e-05
11 *2897:A *277:40 0.000171986
12 *2897:A *343:37 7.4027e-05
13 *2877:A *2897:A 0.000411516
14 *3121:D *2897:A 7.23602e-05
15 *3123:D *2897:A 7.06865e-05
16 *3128:D *2897:A 7.4027e-05
*RES
1 *2890:X *2897:A 33.42 
*END

*D_NET *129 0.000258977
*CONN
*I *2892:B1 I *D sky130_fd_sc_hd__a21o_1
*I *2891:Y O *D sky130_fd_sc_hd__o21ai_1
*CAP
1 *2892:B1 9.15536e-05
2 *2891:Y 9.15536e-05
3 *2892:B1 *428:46 5.18317e-06
4 *2892:B1 *428:50 7.0687e-05
*RES
1 *2891:Y *2892:B1 8.835 
*END

*D_NET *130 0.00170177
*CONN
*I *2897:B I *D sky130_fd_sc_hd__and4_1
*I *2892:X O *D sky130_fd_sc_hd__a21o_1
*CAP
1 *2897:B 0.000563873
2 *2892:X 0.000563873
3 *2897:B *3069:S 1.64132e-05
4 *2897:B *3128:RESET_B 9.12494e-06
5 *2897:B *3200:A 2.20732e-05
6 *2897:B *194:66 0.000186853
7 *2897:B *194:93 4.76051e-05
8 *2897:B *198:142 0.000168366
9 *2897:B *396:21 0.000123589
*RES
1 *2892:X *2897:B 18.06 
*END

*D_NET *131 0.00171081
*CONN
*I *2894:B1 I *D sky130_fd_sc_hd__a21o_1
*I *2893:Y O *D sky130_fd_sc_hd__o21ai_1
*CAP
1 *2894:B1 0.00046806
2 *2893:Y 0.00046806
3 *2894:B1 *2893:A2 0.000136231
4 *2894:B1 *3005:A0 4.27108e-05
5 *2894:B1 *3005:A1 0.000136231
6 *2894:B1 *3006:A 0.00015896
7 *2894:B1 *3231:A 8.43862e-05
8 *2894:B1 *400:20 0.000196716
9 *2894:B1 *424:58 1.94574e-05
*RES
1 *2893:Y *2894:B1 15.285 
*END

*D_NET *132 0.000440312
*CONN
*I *2897:C I *D sky130_fd_sc_hd__and4_1
*I *2894:X O *D sky130_fd_sc_hd__a21o_1
*CAP
1 *2897:C 0.00020378
2 *2894:X 0.00020378
3 *2897:C *3128:RESET_B 5.83121e-06
4 *2897:A *2897:C 2.69217e-05
*RES
1 *2894:X *2897:C 6.065 
*END

*D_NET *133 0.00157349
*CONN
*I *2896:B1 I *D sky130_fd_sc_hd__a21o_1
*I *2895:Y O *D sky130_fd_sc_hd__o21ai_1
*CAP
1 *2896:B1 0.000329855
2 *2895:Y 0.000329855
3 *2896:B1 *2895:A2 4.82919e-05
4 *2896:B1 *198:33 0.000484521
5 *2896:B1 *207:43 0.000106078
6 *2896:B1 *278:10 9.86611e-05
7 *2896:B1 *278:16 7.89689e-05
8 *2896:B1 *278:92 9.7255e-05
*RES
1 *2895:Y *2896:B1 15.09 
*END

*D_NET *134 0.0045727
*CONN
*I *2897:D I *D sky130_fd_sc_hd__and4_1
*I *2896:X O *D sky130_fd_sc_hd__a21o_1
*CAP
1 *2897:D 0.00121407
2 *2896:X 0.00121407
3 *2897:D *2907:B 0.000529108
4 *2897:D *2916:A1 8.52972e-05
5 *2897:D *2916:B1 8.57242e-05
6 *2897:D *3065:S 1.38178e-05
7 *2897:D *3128:RESET_B 0.000207127
8 *2897:D *3134:CLK 0.000160342
9 *2897:D *3134:RESET_B 0.000433175
10 *2897:D *153:24 1.61285e-05
11 *2897:D *199:42 0.000189724
12 *2897:D *275:31 0.000305697
13 *2897:D *430:26 0
14 *3191:A *2897:D 0.000118407
*RES
1 *2896:X *2897:D 31.08 
*END

*D_NET *135 0.00346102
*CONN
*I *2907:B I *D sky130_fd_sc_hd__and3_1
*I *2897:X O *D sky130_fd_sc_hd__and4_1
*CAP
1 *2907:B 0.00132432
2 *2897:X 0.00132432
3 *2907:B *2875:A2 0
4 *2907:B *2876:A1 9.71067e-05
5 *2907:B *2966:A 0
6 *2907:B *3001:A1 2.97004e-06
7 *2907:B *3065:S 2.47655e-05
8 *2907:B *153:24 0
9 *2907:B *327:10 0
10 *2907:B *398:23 4.92014e-05
11 *2907:B *430:26 0.000109221
12 *2877:D *2907:B 0
13 *2897:D *2907:B 0.000529108
*RES
1 *2897:X *2907:B 26.685 
*END

*D_NET *136 0.000510827
*CONN
*I *2899:B1 I *D sky130_fd_sc_hd__a21o_1
*I *2898:Y O *D sky130_fd_sc_hd__o21ai_1
*CAP
1 *2899:B1 0.000112776
2 *2898:Y 0.000112776
3 *2899:B1 *163:34 9.52646e-05
4 *2899:B1 *184:16 9.52646e-05
5 *2899:B1 *198:33 9.47454e-05
6 *2899:B1 *348:48 0
*RES
1 *2898:Y *2899:B1 10.17 
*END

*D_NET *137 0.00196827
*CONN
*I *2906:A I *D sky130_fd_sc_hd__and4_1
*I *2899:X O *D sky130_fd_sc_hd__a21o_1
*CAP
1 *2906:A 0.000532516
2 *2899:X 0.000532516
3 *2906:A *2906:B 4.94457e-05
4 *2906:A *2906:C 4.77757e-05
5 *2906:A *3009:S 3.18219e-05
6 *2906:A *3118:CLK 6.14974e-05
7 *2906:A *184:16 0.000576848
8 *2906:A *348:48 2.05957e-05
9 *3118:D *2906:A 0.000115253
*RES
1 *2899:X *2906:A 16.095 
*END

*D_NET *138 0.000647063
*CONN
*I *2901:B1 I *D sky130_fd_sc_hd__a21o_1
*I *2900:Y O *D sky130_fd_sc_hd__o21ai_1
*CAP
1 *2901:B1 0.000237676
2 *2900:Y 0.000237676
3 *2901:B1 *2900:B1 1.06344e-05
4 *2901:B1 *3137:CLK 8.35157e-05
5 *2881:B1 *2901:B1 7.08331e-05
6 *3137:D *2901:B1 6.72833e-06
*RES
1 *2900:Y *2901:B1 10.665 
*END

*D_NET *139 0.0034584
*CONN
*I *2906:B I *D sky130_fd_sc_hd__and4_1
*I *2901:X O *D sky130_fd_sc_hd__a21o_1
*CAP
1 *2906:B 0.000750379
2 *2901:X 0.000750379
3 *2906:B *2901:A1 4.9334e-05
4 *2906:B *2906:C 0.000188468
5 *2906:B *2906:D 8.99032e-05
6 *2906:B *2957:A0 4.82863e-05
7 *2906:B *2957:A1 9.57002e-05
8 *2906:B *2958:A 0.000161984
9 *2906:B *3009:A1 0.000342178
10 *2906:B *273:76 0.000137364
11 *2906:B *324:10 0
12 *2906:B *324:31 0
13 *2906:B *332:49 0.000113797
14 *2906:B *402:31 0.000273277
15 *2906:B *425:45 7.35694e-05
16 *2906:B *425:73 0.000326251
17 *2886:B *2906:B 8.08153e-06
18 *2906:A *2906:B 4.94457e-05
19 *3138:D *2906:B 0
*RES
1 *2901:X *2906:B 26.07 
*END

*D_NET *140 0.000340184
*CONN
*I *2903:B1 I *D sky130_fd_sc_hd__a21o_1
*I *2902:Y O *D sky130_fd_sc_hd__o21ai_1
*CAP
1 *2903:B1 6.37385e-05
2 *2902:Y 6.37385e-05
3 *2903:B1 *2902:A2 1.16854e-05
4 *2903:B1 *2903:A2 4.00541e-06
5 *2903:B1 *402:31 7.2911e-05
6 *2903:B1 *426:32 7.41429e-05
7 *2903:B1 *426:38 4.99619e-05
*RES
1 *2902:Y *2903:B1 5.045 
*END

*D_NET *141 0.00171312
*CONN
*I *2906:C I *D sky130_fd_sc_hd__and4_1
*I *2903:X O *D sky130_fd_sc_hd__a21o_1
*CAP
1 *2906:C 0.00051449
2 *2903:X 0.00051449
3 *2906:C *2906:D 5.062e-06
4 *2906:C *2958:A 0.000246786
5 *2906:C *184:16 0.000196048
6 *2906:A *2906:C 4.77757e-05
7 *2906:B *2906:C 0.000188468
8 *3118:D *2906:C 0
*RES
1 *2903:X *2906:C 15.15 
*END

*D_NET *142 0.000747233
*CONN
*I *2905:B1 I *D sky130_fd_sc_hd__a21o_1
*I *2904:Y O *D sky130_fd_sc_hd__o21ai_1
*CAP
1 *2905:B1 0.000253096
2 *2904:Y 0.000253096
3 *2905:B1 *2905:A2 2.75145e-05
4 *2905:B1 *3003:A1 0.000120652
5 *2905:B1 *351:25 7.23602e-05
6 *2905:B1 *399:16 2.0514e-05
*RES
1 *2904:Y *2905:B1 10.86 
*END

*D_NET *143 0.0051377
*CONN
*I *2906:D I *D sky130_fd_sc_hd__and4_1
*I *2905:X O *D sky130_fd_sc_hd__a21o_1
*CAP
1 *2906:D 0.00194549
2 *2905:X 0.00194549
3 *2906:D *2953:A0 3.70572e-05
4 *2906:D *2955:S 4.82919e-05
5 *2906:D *3009:A1 0.000108948
6 *2906:D *3010:A 0.000489541
7 *2906:D *332:60 0.000381321
8 *2906:B *2906:D 8.99032e-05
9 *2906:C *2906:D 5.062e-06
10 *3117:D *2906:D 8.65905e-05
*RES
1 *2905:X *2906:D 31.235 
*END

*D_NET *144 0.00168694
*CONN
*I *2907:C I *D sky130_fd_sc_hd__and3_1
*I *2906:X O *D sky130_fd_sc_hd__and4_1
*CAP
1 *2907:C 0.000677137
2 *2906:X 0.000677137
3 *2907:C *2908:A 0.000244398
4 *2907:C *2965:A1 8.8266e-05
*RES
1 *2906:X *2907:C 13.88 
*END

*D_NET *145 0.00100724
*CONN
*I *2908:A I *D sky130_fd_sc_hd__buf_1
*I *2907:X O *D sky130_fd_sc_hd__and3_1
*CAP
1 *2908:A 0.000357274
2 *2907:X 0.000357274
3 *2908:A *336:8 4.82919e-05
4 *2907:C *2908:A 0.000244398
*RES
1 *2907:X *2908:A 9.44 
*END

*D_NET *146 0.000649864
*CONN
*I *2910:B1 I *D sky130_fd_sc_hd__a21o_1
*I *2909:Y O *D sky130_fd_sc_hd__o21ai_1
*CAP
1 *2910:B1 0.000119014
2 *2909:Y 0.000119014
3 *2910:B1 *3027:A0 0.000160635
4 *2910:B1 *3043:A1 9.67888e-05
5 *2910:B1 *276:70 0
6 *2910:B1 *318:24 2.16833e-05
7 *2910:B1 *325:31 9.50342e-06
8 *2910:B1 *325:41 0.000123225
*RES
1 *2909:Y *2910:B1 10.425 
*END

*D_NET *147 0.0022683
*CONN
*I *2917:A I *D sky130_fd_sc_hd__and4_1
*I *2910:X O *D sky130_fd_sc_hd__a21o_1
*CAP
1 *2917:A 0.000748041
2 *2910:X 0.000748041
3 *2917:A *3086:A 7.23533e-05
4 *2917:A *3176:RESET_B 0
5 *2917:A *3220:A 0
6 *2917:A *207:137 0.000691537
7 *2917:A *276:10 0
8 *2917:A *276:12 0
9 *2917:A *325:31 8.33066e-06
*RES
1 *2910:X *2917:A 22.605 
*END

*D_NET *148 0.000732489
*CONN
*I *2912:B1 I *D sky130_fd_sc_hd__a21o_1
*I *2911:Y O *D sky130_fd_sc_hd__o21ai_1
*CAP
1 *2912:B1 0.000210721
2 *2911:Y 0.000210721
3 *2912:B1 *2911:A1 1.47256e-05
4 *2912:B1 *2911:A2 5.30673e-05
5 *2912:B1 *2937:B 0
6 *2912:B1 *207:105 8.65961e-05
7 *2912:B1 *207:118 6.28843e-05
8 *2912:B1 *428:109 9.37731e-05
*RES
1 *2911:Y *2912:B1 10.755 
*END

*D_NET *149 0.00335322
*CONN
*I *2917:B I *D sky130_fd_sc_hd__and4_1
*I *2912:X O *D sky130_fd_sc_hd__a21o_1
*CAP
1 *2917:B 0.00101463
2 *2912:X 0.00101463
3 *2917:B *2917:D 2.49909e-05
4 *2917:B *2933:B1 9.5001e-05
5 *2917:B *2937:A 0
6 *2917:B *2937:B 0
7 *2917:B *3101:S 5.16418e-05
8 *2917:B *3239:A 3.90266e-05
9 *2917:B *207:118 0
10 *2917:B *273:26 0.000228812
11 *2917:B *362:24 0.00069807
12 *2917:B *424:107 0.000186415
*RES
1 *2912:X *2917:B 28.08 
*END

*D_NET *150 0.000294964
*CONN
*I *2914:B1 I *D sky130_fd_sc_hd__a21o_1
*I *2913:Y O *D sky130_fd_sc_hd__o21ai_1
*CAP
1 *2914:B1 6.10541e-05
2 *2913:Y 6.10541e-05
3 *2914:B1 *2914:A1 0.000124569
4 *2914:B1 *2917:C 4.82863e-05
*RES
1 *2913:Y *2914:B1 4.7 
*END

*D_NET *151 0.000478706
*CONN
*I *2917:C I *D sky130_fd_sc_hd__and4_1
*I *2914:X O *D sky130_fd_sc_hd__a21o_1
*CAP
1 *2917:C 0.000120774
2 *2914:X 0.000120774
3 *2917:C *2913:A1 5.83121e-06
4 *2917:C *2913:B1 7.23602e-05
5 *2917:C *2914:A1 3.83194e-05
6 *2917:C *362:24 7.23602e-05
7 *2914:B1 *2917:C 4.82863e-05
*RES
1 *2914:X *2917:C 9.21 
*END

*D_NET *152 0.00134568
*CONN
*I *2916:B1 I *D sky130_fd_sc_hd__a21o_1
*I *2915:Y O *D sky130_fd_sc_hd__o21ai_1
*CAP
1 *2916:B1 0.000345982
2 *2915:Y 0.000345982
3 *2916:B1 *2915:A2 0.00011852
4 *2916:B1 *2915:B1 4.9253e-06
5 *2916:B1 *2916:A1 4.6075e-05
6 *2916:B1 *3001:A0 8.26195e-05
7 *2916:B1 *3049:A1 1.07797e-05
8 *2916:B1 *199:42 0.000305074
9 *2916:B1 *327:10 0
10 *2897:D *2916:B1 8.57242e-05
*RES
1 *2915:Y *2916:B1 14.295 
*END

*D_NET *153 0.00795239
*CONN
*I *2917:D I *D sky130_fd_sc_hd__and4_1
*I *2916:X O *D sky130_fd_sc_hd__a21o_1
*CAP
1 *2917:D 0.00131502
2 *2916:X 0.00157777
3 *153:24 0.00289278
4 *2917:D *3160:RESET_B 1.6586e-05
5 *153:24 *2873:B1 4.21518e-05
6 *153:24 *2907:A 0
7 *153:24 *2937:D 0.000332246
8 *153:24 *2949:B 9.23864e-05
9 *153:24 *2976:A 2.0514e-05
10 *153:24 *3065:S 9.23635e-05
11 *153:24 *3124:CLK 8.23457e-05
12 *153:24 *3124:RESET_B 8.92366e-05
13 *153:24 *3134:RESET_B 0.000186934
14 *153:24 *3160:RESET_B 0.000249323
15 *153:24 *3202:A 8.37714e-05
16 *153:24 *199:42 1.55253e-05
17 *153:24 *199:118 0.000227055
18 *153:24 *283:8 4.82863e-05
19 *153:24 *287:6 0.000162764
20 *153:24 *342:24 6.26945e-05
21 *153:24 *429:18 6.52265e-05
22 *153:24 *430:26 0
23 *2876:B1 *153:24 0
24 *2877:D *153:24 0
25 *2887:B *153:24 0
26 *2897:D *153:24 1.61285e-05
27 *2907:B *153:24 0
28 *2917:B *2917:D 2.49909e-05
29 *3124:D *153:24 4.22429e-05
30 *3160:D *2917:D 2.11084e-05
31 *3191:A *153:24 0.000192945
*RES
1 *2916:X *153:24 39.02 
2 *153:24 *2917:D 15.85 
*END

*D_NET *154 0.00114842
*CONN
*I *2927:B I *D sky130_fd_sc_hd__and3_1
*I *2917:X O *D sky130_fd_sc_hd__and4_1
*CAP
1 *2927:B 0.000378275
2 *2917:X 0.000378275
3 *2927:B *2913:B1 2.75538e-05
4 *2927:B *2927:A 0.000145352
5 *2927:B *2927:C 9.60582e-07
6 *2927:B *2937:A 9.3257e-05
7 *2927:B *2980:A1 1.51312e-05
8 *2927:B *3243:A 4.40812e-05
9 *2927:B *207:137 0
10 *2927:B *362:24 6.55328e-05
*RES
1 *2917:X *2927:B 13.905 
*END

*D_NET *155 0.00104067
*CONN
*I *2919:B1 I *D sky130_fd_sc_hd__a21o_1
*I *2918:Y O *D sky130_fd_sc_hd__o21ai_1
*CAP
1 *2919:B1 0.000303197
2 *2918:Y 0.000303197
3 *2919:B1 *2919:A1 6.72833e-06
4 *2919:B1 *3031:S 1.37328e-05
5 *2919:B1 *3149:CLK 0.000278111
6 *2919:B1 *198:33 9.30717e-05
7 *2919:B1 *203:102 1.22676e-05
8 *2919:B1 *203:125 3.03684e-05
9 *2919:B1 *413:12 0
*RES
1 *2918:Y *2919:B1 12.255 
*END

*D_NET *156 0.00500843
*CONN
*I *2926:A I *D sky130_fd_sc_hd__and4_1
*I *2919:X O *D sky130_fd_sc_hd__a21o_1
*CAP
1 *2926:A 0.00157697
2 *2919:X 0.00157697
3 *2926:A *2882:B1 0
4 *2926:A *2883:A2 8.23457e-05
5 *2926:A *2926:B 5.05437e-05
6 *2926:A *2926:C 6.66464e-05
7 *2926:A *2926:D 3.23663e-05
8 *2926:A *3119:CLK 4.82919e-05
9 *2926:A *3199:A 0.000124736
10 *2926:A *163:20 0.0001249
11 *2926:A *203:125 0.000429181
12 *2926:A *281:10 0.000159423
13 *2926:A *281:113 2.36616e-05
14 *2926:A *332:97 0.000387599
15 *2926:A *348:70 9.32182e-05
16 *2926:A *348:77 1.59888e-05
17 *2926:A *426:59 0
18 *2926:A *427:16 4.5294e-05
19 *2886:A *2926:A 4.77757e-05
20 *2886:D *2926:A 0.000122521
*RES
1 *2919:X *2926:A 36.6 
*END

*D_NET *157 0.00044804
*CONN
*I *2921:B1 I *D sky130_fd_sc_hd__a21o_1
*I *2920:Y O *D sky130_fd_sc_hd__o21ai_1
*CAP
1 *2921:B1 0.000118152
2 *2920:Y 0.000118152
3 *2921:B1 *2920:A1 2.23253e-05
4 *2921:B1 *2941:A2 9.18556e-05
5 *2921:B1 *3153:CLK 8.64599e-05
6 *2921:B1 *425:10 1.10951e-05
*RES
1 *2920:Y *2921:B1 9.375 
*END

*D_NET *158 0.00483164
*CONN
*I *2926:B I *D sky130_fd_sc_hd__and4_1
*I *2921:X O *D sky130_fd_sc_hd__a21o_1
*CAP
1 *2926:B 0.00128755
2 *2921:X 0.00128755
3 *2926:B *2884:B1 0.000480162
4 *2926:B *2926:D 0.000349592
5 *2926:B *2946:B 0
6 *2926:B *2993:S 0.000299606
7 *2926:B *3225:A 0.000230876
8 *2926:B *195:80 0.000202727
9 *2926:B *323:32 2.69217e-05
10 *2926:B *346:67 0
11 *2926:B *425:10 0.000616122
12 *2926:A *2926:B 5.05437e-05
*RES
1 *2921:X *2926:B 36.975 
*END

*D_NET *159 0.000716516
*CONN
*I *2923:B1 I *D sky130_fd_sc_hd__a21o_1
*I *2922:Y O *D sky130_fd_sc_hd__o21ai_1
*CAP
1 *2923:B1 0.000251499
2 *2922:Y 0.000251499
3 *2923:B1 *2922:A2 0
4 *2923:B1 *2923:A2 8.8266e-05
5 *2923:B1 *3026:A 8.65905e-05
6 *2923:B1 *3042:A 3.86607e-05
7 *2923:B1 *410:12 0
8 *2923:B1 *426:90 0
9 *2923:B1 *426:109 0
*RES
1 *2922:Y *2923:B1 11.67 
*END

*D_NET *160 0.00158592
*CONN
*I *2926:C I *D sky130_fd_sc_hd__and4_1
*I *2923:X O *D sky130_fd_sc_hd__a21o_1
*CAP
1 *2926:C 0.000544456
2 *2923:X 0.000544456
3 *2926:C *2923:A2 0.0001615
4 *2926:C *2926:D 4.99619e-05
5 *2926:C *3025:A0 2.0187e-05
6 *2926:C *281:113 8.33066e-06
7 *2926:C *324:44 0.00019038
8 *2926:A *2926:C 6.66464e-05
*RES
1 *2923:X *2926:C 16.155 
*END

*D_NET *161 0.00167466
*CONN
*I *2925:B1 I *D sky130_fd_sc_hd__a21o_1
*I *2924:Y O *D sky130_fd_sc_hd__o21ai_1
*CAP
1 *2925:B1 0.000371955
2 *2924:Y 0.000371955
3 *2925:B1 *3019:A0 0.0001847
4 *2925:B1 *3019:A1 0.000158066
5 *2925:B1 *3020:A 0.00012657
6 *2925:B1 *281:143 8.65905e-05
7 *2925:B1 *347:18 8.88234e-05
8 *2925:B1 *407:14 8.64421e-05
9 *2925:B1 *423:29 4.14369e-05
10 *2925:B1 *423:31 9.37731e-05
11 *2925:B1 *423:63 1.4389e-05
12 *3143:D *2925:B1 4.99619e-05
*RES
1 *2924:Y *2925:B1 15.6 
*END

*D_NET *162 0.00156107
*CONN
*I *2926:D I *D sky130_fd_sc_hd__and4_1
*I *2925:X O *D sky130_fd_sc_hd__a21o_1
*CAP
1 *2926:D 0.000559823
2 *2925:X 0.000559823
3 *2926:D *347:18 9.50342e-06
4 *2926:D *423:29 0
5 *2926:A *2926:D 3.23663e-05
6 *2926:B *2926:D 0.000349592
7 *2926:C *2926:D 4.99619e-05
*RES
1 *2925:X *2926:D 16.44 
*END

*D_NET *163 0.0125474
*CONN
*I *2927:C I *D sky130_fd_sc_hd__and3_1
*I *2926:X O *D sky130_fd_sc_hd__and4_1
*CAP
1 *2927:C 2.10643e-05
2 *2926:X 0.00119954
3 *163:34 0.003123
4 *163:20 0.00430147
5 *163:20 *2884:A1 0
6 *163:20 *2946:B 0
7 *163:20 *2953:A1 0
8 *163:20 *2988:A 6.14602e-05
9 *163:20 *3159:CLK 0.000219351
10 *163:20 *281:113 0.000164686
11 *163:20 *281:115 0.000137578
12 *163:34 *2947:B 0
13 *163:34 *2949:A 0.000108761
14 *163:34 *2949:C 0.000506539
15 *163:34 *2949:D 8.40269e-05
16 *163:34 *2958:A 4.98756e-05
17 *163:34 *2975:A0 0.00040272
18 *163:34 *2975:S 4.35432e-05
19 *163:34 *3011:S 6.71882e-05
20 *163:34 *3015:A0 5.55174e-05
21 *163:34 *3015:A1 8.65905e-05
22 *163:34 *3085:S 7.35729e-05
23 *163:34 *3241:A 4.82919e-05
24 *163:34 *184:16 0.000300477
25 *163:34 *199:118 0.000100516
26 *163:34 *202:44 0.000331939
27 *163:34 *402:31 3.64998e-06
28 *163:34 *428:27 7.4027e-05
29 *163:34 *429:35 0.000268739
30 *2885:B1 *163:20 0
31 *2886:B *163:20 7.06865e-05
32 *2886:D *163:20 0.000421466
33 *2899:B1 *163:34 9.52646e-05
34 *2926:A *163:20 0.0001249
35 *2927:B *2927:C 9.60582e-07
*RES
1 *2926:X *163:20 28.29 
2 *163:20 *163:34 49.96 
3 *163:34 *2927:C 1.8025 
*END

*D_NET *164 0.000152886
*CONN
*I *2928:A I *D sky130_fd_sc_hd__buf_1
*I *2927:X O *D sky130_fd_sc_hd__and3_1
*CAP
1 *2928:A 7.64431e-05
2 *2927:X 7.64431e-05
*RES
1 *2927:X *2928:A 4.265 
*END

*D_NET *165 0.000843438
*CONN
*I *2930:B1 I *D sky130_fd_sc_hd__a21o_1
*I *2929:Y O *D sky130_fd_sc_hd__o21ai_1
*CAP
1 *2930:B1 0.000292319
2 *2929:Y 0.000292319
3 *2930:B1 *2929:A2 0.000118901
4 *2930:B1 *2930:A2 4.99619e-05
5 *2930:B1 *3043:A1 0
6 *2930:B1 *3209:A 4.82919e-05
7 *2930:B1 *419:17 4.16445e-05
*RES
1 *2929:Y *2930:B1 8.15 
*END

*D_NET *166 0.00516895
*CONN
*I *2937:A I *D sky130_fd_sc_hd__and4_1
*I *2930:X O *D sky130_fd_sc_hd__a21o_1
*CAP
1 *2937:A 0.00110877
2 *2930:X 0.00110877
3 *2937:A *2909:A1 0.000104097
4 *2937:A *2933:B1 8.53113e-06
5 *2937:A *2961:A1 0.000166537
6 *2937:A *2980:A1 0.000467266
7 *2937:A *2986:A 7.1624e-05
8 *2937:A *3085:A0 7.23602e-05
9 *2937:A *3101:S 1.94805e-05
10 *2937:A *3239:A 0.000114492
11 *2937:A *207:149 0
12 *2937:A *273:50 4.73312e-05
13 *2937:A *311:8 4.77719e-05
14 *2937:A *332:10 0.00100048
15 *2937:A *332:20 0.00024756
16 *2937:A *362:24 0
17 *2937:A *428:27 0.000490627
18 *2917:B *2937:A 0
19 *2927:B *2937:A 9.3257e-05
*RES
1 *2930:X *2937:A 38.04 
*END

*D_NET *167 0.000587542
*CONN
*I *2932:B1 I *D sky130_fd_sc_hd__a21o_1
*I *2931:Y O *D sky130_fd_sc_hd__o21ai_1
*CAP
1 *2932:B1 0.000218134
2 *2931:Y 0.000218134
3 *2932:B1 *2931:A1 0
4 *2932:B1 *2931:A2 6.05513e-05
5 *2932:B1 *2932:A2 5.21545e-05
6 *2932:B1 *3045:S 3.00381e-05
7 *2932:B1 *428:109 8.53113e-06
*RES
1 *2931:Y *2932:B1 10.665 
*END

*D_NET *168 0.00207698
*CONN
*I *2937:B I *D sky130_fd_sc_hd__and4_1
*I *2932:X O *D sky130_fd_sc_hd__a21o_1
*CAP
1 *2937:B 0.000576527
2 *2932:X 0.000576527
3 *2937:B *2931:A1 2.97004e-06
4 *2937:B *2933:B1 0.000178553
5 *2937:B *2937:C 0.000141599
6 *2937:B *207:105 8.8266e-05
7 *2937:B *207:118 0
8 *2937:B *273:26 0.000183775
9 *2937:B *428:27 0.000287639
10 *2937:B *428:29 4.11198e-05
11 *2937:B *428:109 0
12 *2912:B1 *2937:B 0
13 *2917:B *2937:B 0
*RES
1 *2932:X *2937:B 19.83 
*END

*D_NET *169 0.00028571
*CONN
*I *2934:B1 I *D sky130_fd_sc_hd__a21o_1
*I *2933:Y O *D sky130_fd_sc_hd__o21ai_1
*CAP
1 *2934:B1 3.87984e-05
2 *2933:Y 3.87984e-05
3 *2934:B1 *2933:A2 0.000133309
4 *2934:B1 *2933:B1 1.14192e-05
5 *2934:B1 *2934:A1 6.72833e-06
6 *2934:B1 *424:90 5.66565e-05
*RES
1 *2933:Y *2934:B1 4.7 
*END

*D_NET *170 0.000759305
*CONN
*I *2937:C I *D sky130_fd_sc_hd__and4_1
*I *2934:X O *D sky130_fd_sc_hd__a21o_1
*CAP
1 *2937:C 0.00018404
2 *2934:X 0.00018404
3 *2937:C *424:81 1.42674e-05
4 *2937:C *424:90 0.00015639
5 *2937:C *428:27 7.89689e-05
6 *2937:B *2937:C 0.000141599
*RES
1 *2934:X *2937:C 10.665 
*END

*D_NET *171 0.000844945
*CONN
*I *2936:B1 I *D sky130_fd_sc_hd__a21o_1
*I *2935:Y O *D sky130_fd_sc_hd__o21ai_1
*CAP
1 *2936:B1 0.000241369
2 *2935:Y 0.000241369
3 *2936:B1 *2936:A2 5.72004e-05
4 *2936:B1 *207:22 4.60584e-05
5 *2936:B1 *207:43 0.000195476
6 *2936:B1 *341:49 4.18603e-06
7 *2936:B1 *341:65 5.92849e-05
*RES
1 *2935:Y *2936:B1 11.355 
*END

*D_NET *172 0.00629248
*CONN
*I *2937:D I *D sky130_fd_sc_hd__and4_1
*I *2936:X O *D sky130_fd_sc_hd__a21o_1
*CAP
1 *2937:D 0.00238772
2 *2936:X 0.00238772
3 *2937:D *2893:A1 2.30292e-05
4 *2937:D *2893:A2 0.000316415
5 *2937:D *2947:B 0.000159741
6 *2937:D *3006:A 4.85494e-05
7 *2937:D *3034:A 0.000200099
8 *2937:D *3069:A0 0.00012657
9 *2937:D *3128:RESET_B 4.51129e-05
10 *2937:D *3134:RESET_B 0
11 *2937:D *3231:A 2.16917e-05
12 *2937:D *275:35 0
13 *2937:D *275:37 0
14 *2937:D *341:65 0
15 *3128:D *2937:D 4.7101e-05
16 *3134:D *2937:D 9.18556e-05
17 *3191:A *2937:D 0.000104622
18 *153:24 *2937:D 0.000332246
*RES
1 *2936:X *2937:D 45.795 
*END

*D_NET *173 0.00531803
*CONN
*I *2947:B I *D sky130_fd_sc_hd__and3_1
*I *2937:X O *D sky130_fd_sc_hd__and4_1
*CAP
1 *2947:B 0.00127615
2 *2937:X 0.00127615
3 *2947:B *2949:C 0.000277036
4 *2947:B *2985:A0 0.000141606
5 *2947:B *3271:A 0.000106655
6 *2947:B *202:27 0.0010032
7 *2947:B *206:61 0.0010082
8 *2947:B *318:24 0
9 *2947:B *318:28 0
10 *2947:B *338:28 6.92999e-05
11 *2947:B *343:113 0
12 *2947:B *428:27 0
13 *2937:D *2947:B 0.000159741
14 *3168:D *2947:B 0
15 *163:34 *2947:B 0
*RES
1 *2937:X *2947:B 37.905 
*END

*D_NET *174 0.000242491
*CONN
*I *2939:B1 I *D sky130_fd_sc_hd__a21o_1
*I *2938:Y O *D sky130_fd_sc_hd__o21ai_1
*CAP
1 *2939:B1 7.99572e-05
2 *2938:Y 7.99572e-05
3 *2939:B1 *2938:A1 4.93884e-05
4 *2939:B1 *342:71 0
5 *2939:B1 *421:14 3.31877e-05
*RES
1 *2938:Y *2939:B1 8.94 
*END

*D_NET *175 0.00608119
*CONN
*I *2946:A I *D sky130_fd_sc_hd__and4_1
*I *2939:X O *D sky130_fd_sc_hd__a21o_1
*CAP
1 *2946:A 0.00241142
2 *2939:X 0.00241142
3 *2946:A *2882:B1 6.55406e-05
4 *2946:A *2902:B1 0.000116853
5 *2946:A *2922:A2 0.000136877
6 *2946:A *2922:B1 5.83373e-05
7 *2946:A *2942:B1 9.14049e-05
8 *2946:A *2943:A1 0.000129552
9 *2946:A *2943:A2 4.99619e-05
10 *2946:A *2946:C 4.21973e-05
11 *2946:A *2946:D 1.61831e-05
12 *2946:A *3041:A1 5.13155e-05
13 *2946:A *3047:A1 2.75145e-05
14 *2946:A *3146:RESET_B 0.00012076
15 *2946:A *3154:RESET_B 1.82499e-06
16 *2946:A *182:12 0.000124007
17 *2946:A *427:32 0.000226022
*RES
1 *2939:X *2946:A 48.97 
*END

*D_NET *176 0.000776843
*CONN
*I *2941:B1 I *D sky130_fd_sc_hd__a21o_1
*I *2940:Y O *D sky130_fd_sc_hd__o21ai_1
*CAP
1 *2941:B1 0.000263534
2 *2940:Y 0.000263534
3 *2941:B1 *2920:B1 0.000176699
4 *2941:B1 *3145:CLK 1.10359e-05
5 *2941:B1 *279:112 1.42598e-05
6 *2941:B1 *417:14 4.77807e-05
*RES
1 *2940:Y *2941:B1 11.88 
*END

*D_NET *177 0.00474058
*CONN
*I *2946:B I *D sky130_fd_sc_hd__and4_1
*I *2941:X O *D sky130_fd_sc_hd__a21o_1
*CAP
1 *2946:B 0.00193426
2 *2941:X 0.00193426
3 *2946:B *2884:A2 0.000226848
4 *2946:B *2943:A2 9.50342e-06
5 *2946:B *2951:S 0
6 *2946:B *2953:A1 0
7 *2946:B *2993:S 0
8 *2946:B *3041:A1 0
9 *2946:B *195:69 0.000487997
10 *2946:B *195:80 0
11 *2946:B *281:113 0
12 *2946:B *391:16 3.32238e-05
13 *2946:B *423:69 0.000114492
14 *2946:B *425:10 0
15 *2926:B *2946:B 0
16 *163:20 *2946:B 0
*RES
1 *2941:X *2946:B 42.375 
*END

*D_NET *178 0.00182023
*CONN
*I *2943:B1 I *D sky130_fd_sc_hd__a21o_1
*I *2942:Y O *D sky130_fd_sc_hd__o21ai_1
*CAP
1 *2943:B1 0.000518881
2 *2942:Y 0.000518881
3 *2943:B1 *2922:A2 0.000239807
4 *2943:B1 *2942:A1 4.82919e-05
5 *2943:B1 *2942:B1 3.30601e-05
6 *2943:B1 *2943:A2 0.000225586
7 *2943:B1 *2946:C 4.82919e-05
8 *2943:B1 *2951:S 4.92096e-05
9 *2943:B1 *3041:A0 4.99619e-05
10 *2943:B1 *3041:S 8.82557e-05
*RES
1 *2942:Y *2943:B1 16.635 
*END

*D_NET *179 0.000710478
*CONN
*I *2946:C I *D sky130_fd_sc_hd__and4_1
*I *2943:X O *D sky130_fd_sc_hd__a21o_1
*CAP
1 *2946:C 8.52358e-05
2 *2943:X 8.52358e-05
3 *2946:C *2943:A1 1.33293e-05
4 *2946:C *2943:A2 8.65961e-05
5 *2946:C *2946:D 0.000349592
6 *2943:B1 *2946:C 4.82919e-05
7 *2946:A *2946:C 4.21973e-05
*RES
1 *2943:X *2946:C 6.41 
*END

*D_NET *180 0.00140068
*CONN
*I *2945:B1 I *D sky130_fd_sc_hd__a21o_1
*I *2944:Y O *D sky130_fd_sc_hd__o21ai_1
*CAP
1 *2945:B1 0.00021964
2 *2944:Y 0.00021964
3 *2945:B1 *2945:A1 8.40213e-05
4 *2945:B1 *2945:A2 0.000199833
5 *2945:B1 *3041:S 6.77417e-05
6 *2945:B1 *415:18 0.000206787
7 *2945:B1 *423:14 8.65905e-05
8 *2945:B1 *423:18 0.000316423
*RES
1 *2944:Y *2945:B1 10.175 
*END

*D_NET *181 0.00163398
*CONN
*I *2946:D I *D sky130_fd_sc_hd__and4_1
*I *2945:X O *D sky130_fd_sc_hd__a21o_1
*CAP
1 *2946:D 0.000634103
2 *2945:X 0.000634103
3 *2946:D *2951:S 0
4 *2946:D *3183:CLK 0
5 *2946:A *2946:D 1.61831e-05
6 *2946:C *2946:D 0.000349592
*RES
1 *2945:X *2946:D 15.075 
*END

*D_NET *182 0.00917872
*CONN
*I *2947:C I *D sky130_fd_sc_hd__and3_1
*I *2946:X O *D sky130_fd_sc_hd__and4_1
*CAP
1 *2947:C 0.00134631
2 *2946:X 0.00179156
3 *182:12 0.00313787
4 *2947:C *2948:A 6.77417e-05
5 *2947:C *2949:D 0.000200333
6 *2947:C *2995:A0 0.000580311
7 *2947:C *2995:S 0.000438931
8 *2947:C *3149:CLK 0.000120967
9 *2947:C *338:28 4.59113e-05
10 *182:12 *2918:A1 4.92062e-05
11 *182:12 *2918:B1 3.45679e-05
12 *182:12 *2943:A1 0.000198203
13 *182:12 *3042:A 0.000220374
14 *182:12 *3146:CLK 5.05437e-05
15 *182:12 *3146:RESET_B 2.8185e-05
16 *182:12 *3149:CLK 0.000421222
17 *182:12 *410:8 0.000123225
18 *2946:A *182:12 0.000124007
19 *3149:D *2947:C 6.43251e-05
20 *3154:D *182:12 0.00013493
*RES
1 *2946:X *182:12 31.675 
2 *182:12 *2947:C 25.39 
*END

*D_NET *183 0.00033737
*CONN
*I *2948:A I *D sky130_fd_sc_hd__dlymetal6s2s_1
*I *2947:X O *D sky130_fd_sc_hd__and3_1
*CAP
1 *2948:A 4.66914e-05
2 *2947:X 4.66914e-05
3 *2948:A *2995:A0 4.82919e-05
4 *2948:A *338:6 0
5 *2948:A *338:28 0.000127954
6 *2947:C *2948:A 6.77417e-05
*RES
1 *2947:X *2948:A 5.045 
*END

*D_NET *184 0.0108465
*CONN
*I *2950:A I *D sky130_fd_sc_hd__clkbuf_1
*I *2949:X O *D sky130_fd_sc_hd__or4_1
*CAP
1 *2950:A 0.00217782
2 *2949:X 0.000950255
3 *184:16 0.00312808
4 *2950:A *2904:A1 2.75229e-05
5 *2950:A *2904:B1 0.000500625
6 *2950:A *3051:A0 0.000263968
7 *2950:A *3052:A 0.000318091
8 *2950:A *3225:A 8.65961e-05
9 *2950:A *195:69 0.000123225
10 *2950:A *195:80 0.000199833
11 *2950:A *207:66 0.000198945
12 *2950:A *423:39 4.66742e-05
13 *184:16 *2902:A2 3.26889e-05
14 *184:16 *2958:A 4.98756e-05
15 *184:16 *3009:S 0.000368537
16 *184:16 *3016:A 0.00023468
17 *184:16 *199:118 0.000673699
18 *184:16 *402:31 0.000122331
19 *184:16 *426:23 0
20 *2886:B *184:16 5.23093e-05
21 *2899:B1 *184:16 9.52646e-05
22 *2906:A *184:16 0.000576848
23 *2906:C *184:16 0.000196048
24 *3118:D *184:16 0.000122083
25 *163:34 *184:16 0.000300477
*RES
1 *2949:X *184:16 28.94 
2 *184:16 *2950:A 37.165 
*END

*D_NET *185 0.000801531
*CONN
*I *2952:A I *D sky130_fd_sc_hd__clkbuf_1
*I *2951:X O *D sky130_fd_sc_hd__mux2_1
*CAP
1 *2952:A 0.000276401
2 *2951:X 0.000276401
3 *2952:A *2951:S 0.000130209
4 *2952:A *281:72 0.00011852
*RES
1 *2951:X *2952:A 11.445 
*END

*D_NET *186 0.0006003
*CONN
*I *2954:A I *D sky130_fd_sc_hd__clkbuf_1
*I *2953:X O *D sky130_fd_sc_hd__mux2_1
*CAP
1 *2954:A 8.60143e-05
2 *2953:X 8.60143e-05
3 *2954:A *2955:A0 0.000163199
4 *2954:A *2956:A 2.67022e-05
5 *2954:A *320:8 0
6 *2954:A *424:28 9.91257e-05
7 *3116:D *2954:A 0
8 *3117:D *2954:A 0.000139245
*RES
1 *2953:X *2954:A 10.32 
*END

*D_NET *187 0.000310387
*CONN
*I *2956:A I *D sky130_fd_sc_hd__clkbuf_1
*I *2955:X O *D sky130_fd_sc_hd__mux2_1
*CAP
1 *2956:A 0.000126823
2 *2955:X 0.000126823
3 *2956:A *2953:A0 0
4 *2956:A *2955:A0 3.00381e-05
5 *2956:A *195:69 0
6 *2956:A *320:8 0
7 *2954:A *2956:A 2.67022e-05
8 *3117:D *2956:A 0
*RES
1 *2955:X *2956:A 9.285 
*END

*D_NET *188 0.00112035
*CONN
*I *2958:A I *D sky130_fd_sc_hd__clkbuf_1
*I *2957:X O *D sky130_fd_sc_hd__mux2_1
*CAP
1 *2958:A 0.000305913
2 *2957:X 0.000305913
3 *2958:A *3118:CLK 0
4 *2958:A *402:31 0
5 *2886:B *2958:A 0
6 *2906:B *2958:A 0.000161984
7 *2906:C *2958:A 0.000246786
8 *163:34 *2958:A 4.98756e-05
9 *184:16 *2958:A 4.98756e-05
*RES
1 *2957:X *2958:A 13.155 
*END

*D_NET *189 0.000228258
*CONN
*I *2960:A I *D sky130_fd_sc_hd__clkbuf_1
*I *2959:X O *D sky130_fd_sc_hd__mux2_1
*CAP
1 *2960:A 6.19459e-05
2 *2959:X 6.19459e-05
3 *2960:A *427:32 8.64565e-05
4 *2886:A *2960:A 1.79098e-05
*RES
1 *2959:X *2960:A 4.61 
*END

*D_NET *190 0.000553878
*CONN
*I *2962:A I *D sky130_fd_sc_hd__clkbuf_1
*I *2961:X O *D sky130_fd_sc_hd__mux2_1
*CAP
1 *2962:A 0.000144843
2 *2961:X 0.000144843
3 *2962:A *3139:CLK 0.000231503
4 *2962:A *3220:A 3.26889e-05
*RES
1 *2961:X *2962:A 6.095 
*END

*D_NET *191 0.00030664
*CONN
*I *2964:A I *D sky130_fd_sc_hd__clkbuf_1
*I *2963:X O *D sky130_fd_sc_hd__mux2_1
*CAP
1 *2964:A 9.24118e-05
2 *2963:X 9.24118e-05
3 *2964:A *2963:A1 0.000121817
*RES
1 *2963:X *2964:A 4.955 
*END

*D_NET *192 0.000260915
*CONN
*I *2966:A I *D sky130_fd_sc_hd__clkbuf_1
*I *2965:X O *D sky130_fd_sc_hd__mux2_1
*CAP
1 *2966:A 9.3444e-05
2 *2965:X 9.3444e-05
3 *2966:A *327:10 7.4027e-05
4 *2907:B *2966:A 0
*RES
1 *2965:X *2966:A 8.94 
*END

*D_NET *193 0.00076696
*CONN
*I *2968:A I *D sky130_fd_sc_hd__clkbuf_4
*I *2967:X O *D sky130_fd_sc_hd__or3b_1
*CAP
1 *2968:A 0.000245733
2 *2967:X 0.000245733
3 *2968:A *2972:C 9.53428e-06
4 *2968:A *2973:A 4.99619e-05
5 *2968:A *330:16 7.46749e-05
6 *2968:A *330:18 0.000141323
*RES
1 *2967:X *2968:A 7.22 
*END

*D_NET *194 0.0301108
*CONN
*I *3061:S I *D sky130_fd_sc_hd__mux2_1
*I *3057:S I *D sky130_fd_sc_hd__mux2_1
*I *3063:S I *D sky130_fd_sc_hd__mux2_1
*I *3059:S I *D sky130_fd_sc_hd__mux2_1
*I *3053:S I *D sky130_fd_sc_hd__mux2_1
*I *3065:S I *D sky130_fd_sc_hd__mux2_1
*I *2969:A I *D sky130_fd_sc_hd__buf_4
*I *3055:S I *D sky130_fd_sc_hd__mux2_1
*I *2968:X O *D sky130_fd_sc_hd__clkbuf_4
*CAP
1 *3061:S 0
2 *3057:S 0.00135369
3 *3063:S 2.70068e-05
4 *3059:S 0
5 *3053:S 5.51899e-05
6 *3065:S 0.00138248
7 *2969:A 0
8 *3055:S 0.00250857
9 *2968:X 0.000550047
10 *194:125 0.00247687
11 *194:108 0.00281478
12 *194:93 0.00241841
13 *194:66 0.0022606
14 *194:51 0.000727267
15 *194:20 0.00355238
16 *3053:S *3053:A1 5.07419e-05
17 *3055:S *2935:B1 2.34083e-05
18 *3055:S *3055:A0 2.30292e-05
19 *3055:S *3055:A1 4.82863e-05
20 *3055:S *3061:A0 1.60203e-05
21 *3055:S *3061:A1 0.000241483
22 *3055:S *3062:A 0.000275542
23 *3055:S *3164:RESET_B 4.5168e-05
24 *3055:S *3190:CLK 0
25 *3055:S *3226:A 9.29176e-05
26 *3055:S *202:106 9.0308e-05
27 *3055:S *206:150 0
28 *3055:S *328:14 0.00010301
29 *3055:S *345:106 0.00041515
30 *3057:S *2898:B1 7.23533e-05
31 *3057:S *3057:A0 0.000124007
32 *3057:S *3057:A1 4.82863e-05
33 *3057:S *3063:A1 0.000114912
34 *3057:S *3073:S 4.93325e-05
35 *3057:S *3075:S 1.34503e-05
36 *3057:S *3096:A 0.00021857
37 *3057:S *3162:CLK 1.83847e-05
38 *3057:S *3235:A 0.000198945
39 *3057:S *198:70 8.34281e-06
40 *3057:S *280:89 2.46089e-05
41 *3057:S *289:10 8.05962e-05
42 *3057:S *319:33 0.000118901
43 *3063:S *3063:A0 1.85674e-05
44 *3063:S *3064:A 0
45 *3063:S *319:33 5.4155e-06
46 *3065:S *3002:A 8.46818e-05
47 *3065:S *3065:A0 2.21074e-05
48 *3065:S *3065:A1 4.77769e-05
49 *3065:S *3066:A 0.000158005
50 *3065:S *3128:RESET_B 4.11729e-05
51 *3065:S *3134:RESET_B 9.10613e-05
52 *3065:S *195:33 0.00040343
53 *3065:S *275:27 0.000342602
54 *3065:S *398:8 2.75229e-05
55 *194:20 *2891:B1 0.000351885
56 *194:20 *3061:A0 0.000184661
57 *194:20 *3172:CLK 5.06989e-05
58 *194:20 *202:106 4.43682e-05
59 *194:20 *275:47 7.93185e-05
60 *194:20 *330:16 0.000159285
61 *194:20 *390:14 8.9014e-05
62 *194:51 *2997:S 0.000110883
63 *194:51 *198:19 0.000226834
64 *194:51 *198:142 0.000858876
65 *194:51 *344:12 0
66 *194:51 *344:37 0
67 *194:66 *3069:S 0.000333568
68 *194:66 *198:142 0.00015856
69 *194:66 *199:36 1.91597e-05
70 *194:93 *2873:A1 2.61115e-05
71 *194:93 *2873:B1 8.51684e-05
72 *194:93 *3053:A1 6.34721e-05
73 *194:93 *3069:S 0.000522056
74 *194:93 *3128:RESET_B 3.06284e-05
75 *194:93 *392:27 0.000104913
76 *194:108 *2869:A1 0
77 *194:108 *2889:A2 0.000224501
78 *194:108 *2995:A1 7.4027e-05
79 *194:108 *2996:A 0
80 *194:108 *3011:A0 7.23602e-05
81 *194:108 *3011:S 0
82 *194:108 *3053:A0 0
83 *194:108 *3054:A 0
84 *194:108 *3059:A0 4.94474e-05
85 *194:108 *3059:A1 1.61831e-05
86 *194:108 *3060:A 1.08758e-05
87 *194:108 *3131:RESET_B 0.000133938
88 *194:108 *3163:RESET_B 9.78734e-05
89 *194:108 *403:19 0.000184717
90 *194:108 *427:44 0
91 *194:125 *2938:B1 0
92 *194:125 *3059:A1 0.000125472
93 *194:125 *3063:A1 4.82919e-05
94 *194:125 *3064:A 3.26889e-05
95 *194:125 *3111:A1 7.60965e-05
96 *194:125 *3165:RESET_B 0
97 *194:125 *319:33 2.8185e-05
98 *2870:B1 *194:108 0
99 *2877:B *194:51 4.19797e-05
100 *2890:B1 *194:108 0.000115159
101 *2897:A *194:93 0.00084312
102 *2897:B *194:66 0.000186853
103 *2897:B *194:93 4.76051e-05
104 *2897:D *3065:S 1.38178e-05
105 *2907:B *3065:S 2.47655e-05
106 *3162:D *3057:S 9.92913e-05
107 *3164:D *3055:S 0
108 *3166:D *3065:S 5.30673e-05
109 *3172:D *194:20 1.58555e-05
110 *3190:D *3055:S 1.7386e-05
111 *153:24 *3065:S 9.23635e-05
*RES
1 *2968:X *194:20 18.83 
2 *194:20 *3055:S 47.985 
3 *194:20 *194:51 16.6 
4 *194:51 *2969:A 1.6 
5 *194:51 *194:66 8.48 
6 *194:66 *3065:S 31.3 
7 *194:66 *194:93 18.77 
8 *194:93 *3053:S 2.74 
9 *194:93 *194:108 34.84 
10 *194:108 *3059:S 1.6 
11 *194:108 *194:125 21.73 
12 *194:125 *3063:S 2.215 
13 *194:125 *3057:S 26.51 
14 *194:20 *3061:S 1.6 
*END

*D_NET *195 0.0264143
*CONN
*I *2995:S I *D sky130_fd_sc_hd__mux2_1
*I *2999:S I *D sky130_fd_sc_hd__mux2_1
*I *2970:S I *D sky130_fd_sc_hd__mux2_1
*I *2989:S I *D sky130_fd_sc_hd__mux2_1
*I *2993:S I *D sky130_fd_sc_hd__mux2_1
*I *2987:S I *D sky130_fd_sc_hd__mux2_1
*I *3051:S I *D sky130_fd_sc_hd__mux2_1
*I *2991:S I *D sky130_fd_sc_hd__mux2_1
*I *3001:S I *D sky130_fd_sc_hd__mux2_1
*I *2997:S I *D sky130_fd_sc_hd__mux2_1
*I *2969:X O *D sky130_fd_sc_hd__buf_4
*CAP
1 *2995:S 0.000346718
2 *2999:S 0.000454773
3 *2970:S 3.71881e-05
4 *2989:S 0.00026363
5 *2993:S 0.00102748
6 *2987:S 0
7 *3051:S 0
8 *2991:S 0.000128881
9 *3001:S 0
10 *2997:S 0.000527514
11 *2969:X 3.18487e-05
12 *195:126 0.00106363
13 *195:115 0.000990791
14 *195:100 0.00124655
15 *195:80 0.00124865
16 *195:69 0.000976539
17 *195:48 0.00279349
18 *195:33 0.0024233
19 *195:29 0.000950874
20 *195:8 0.000704723
21 *2970:S *2975:A1 4.60584e-05
22 *2970:S *318:55 1.08758e-05
23 *2989:S *2989:A0 8.60799e-05
24 *2989:S *2990:A 0.000121019
25 *2989:S *3069:S 0.000308228
26 *2989:S *392:27 4.21174e-05
27 *2991:S *3007:A1 9.73303e-05
28 *2993:S *348:18 0.0015004
29 *2995:S *2949:D 0.000757985
30 *2995:S *3000:A 0
31 *2995:S *342:56 0.000194043
32 *2997:S *2997:A1 4.40028e-05
33 *2997:S *2998:A 0
34 *2997:S *3013:A0 0.00017894
35 *2997:S *3200:A 0.000123955
36 *2997:S *203:60 0.000256344
37 *2997:S *396:12 4.86642e-05
38 *2997:S *428:46 6.23541e-06
39 *2999:S *2999:A1 4.89395e-05
40 *2999:S *3000:A 0.000148983
41 *2999:S *429:67 0.000159566
42 *195:8 *199:36 2.49909e-05
43 *195:33 *3001:A0 8.46818e-05
44 *195:33 *3002:A 0.000121039
45 *195:48 *2900:A2 0.000188911
46 *195:48 *2901:A1 4.77769e-05
47 *195:48 *3001:A0 4.77769e-05
48 *195:48 *3001:A1 4.52004e-05
49 *195:48 *3007:A1 0.000283392
50 *195:48 *3023:S 0.000385044
51 *195:48 *401:18 0.000286136
52 *195:69 *2953:A0 0
53 *195:69 *2953:A1 0.000141599
54 *195:69 *2955:S 6.28765e-05
55 *195:69 *3023:S 1.27899e-05
56 *195:69 *3051:A0 5.05437e-05
57 *195:69 *346:77 0
58 *195:69 *424:14 1.37895e-05
59 *195:80 *3051:A0 0.000113809
60 *195:100 *3128:RESET_B 0
61 *195:115 *2970:A1 0
62 *195:115 *2975:A1 0
63 *195:115 *2976:A 0.000130106
64 *195:115 *3011:S 2.42236e-05
65 *195:115 *3121:RESET_B 0.000266618
66 *195:115 *3124:CLK 9.68865e-05
67 *195:115 *342:49 0.000379862
68 *195:115 *344:37 0.000177598
69 *195:126 *2949:D 0
70 *195:126 *2970:A1 0
71 *195:126 *342:49 7.84667e-05
72 *195:126 *342:56 0.000176137
73 *2877:A *195:115 0.000132697
74 *2877:B *2997:S 0.000222231
75 *2877:B *195:29 0.00030856
76 *2877:B *195:100 0.000549139
77 *2877:B *195:115 0.000298449
78 *2897:A *195:100 0
79 *2897:A *195:115 0
80 *2926:B *2993:S 0.000299606
81 *2926:B *195:80 0.000202727
82 *2946:B *2993:S 0
83 *2946:B *195:69 0.000487997
84 *2946:B *195:80 0
85 *2947:C *2995:S 0.000438931
86 *2950:A *195:69 0.000123225
87 *2950:A *195:80 0.000199833
88 *2956:A *195:69 0
89 *3065:S *195:33 0.00040343
90 *3117:D *195:69 0
91 *3128:D *195:100 0
92 *194:51 *2997:S 0.000110883
*RES
1 *2969:X *195:8 4.05 
2 *195:8 *2997:S 19.51 
3 *195:8 *195:29 3.675 
4 *195:29 *195:33 11.765 
5 *195:33 *3001:S 1.6 
6 *195:33 *195:48 29.925 
7 *195:48 *2991:S 8.255 
8 *195:48 *195:69 20.155 
9 *195:69 *3051:S 1.6 
10 *195:69 *195:80 8.015 
11 *195:80 *2987:S 3.6 
12 *195:80 *2993:S 25.77 
13 *195:29 *195:100 6.48 
14 *195:100 *2989:S 9.225 
15 *195:100 *195:115 17.325 
16 *195:115 *2970:S 4.395 
17 *195:115 *195:126 5.97 
18 *195:126 *2999:S 12.33 
19 *195:126 *2995:S 14.79 
*END

*D_NET *196 0.000211004
*CONN
*I *2971:A I *D sky130_fd_sc_hd__clkbuf_1
*I *2970:X O *D sky130_fd_sc_hd__mux2_1
*CAP
1 *2971:A 6.92654e-05
2 *2970:X 6.92654e-05
3 *2971:A *318:55 5.87405e-05
4 *2971:A *343:37 1.37328e-05
*RES
1 *2970:X *2971:A 4.61 
*END

*D_NET *197 0.000296075
*CONN
*I *2973:A I *D sky130_fd_sc_hd__buf_4
*I *2972:X O *D sky130_fd_sc_hd__and3b_1
*CAP
1 *2973:A 0.000123057
2 *2972:X 0.000123057
3 *2973:A *202:10 0
4 *2968:A *2973:A 4.99619e-05
5 *3172:D *2973:A 0
*RES
1 *2972:X *2973:A 9.03 
*END

*D_NET *198 0.0319294
*CONN
*I *2974:A I *D sky130_fd_sc_hd__buf_4
*I *3069:S I *D sky130_fd_sc_hd__mux2_1
*I *3081:S I *D sky130_fd_sc_hd__mux2_1
*I *3071:S I *D sky130_fd_sc_hd__mux2_1
*I *3079:S I *D sky130_fd_sc_hd__mux2_1
*I *3073:S I *D sky130_fd_sc_hd__mux2_1
*I *3075:S I *D sky130_fd_sc_hd__mux2_1
*I *3077:S I *D sky130_fd_sc_hd__mux2_1
*I *2973:X O *D sky130_fd_sc_hd__buf_4
*CAP
1 *2974:A 0
2 *3069:S 0.000794783
3 *3081:S 0.000127964
4 *3071:S 0.000782857
5 *3079:S 0
6 *3073:S 0.000870456
7 *3075:S 0.00124379
8 *3077:S 0
9 *2973:X 0.000162355
10 *198:142 0.00113686
11 *198:104 0.00114871
12 *198:70 0.000884532
13 *198:39 0.00139056
14 *198:33 0.00256619
15 *198:31 0.00243349
16 *198:29 0.00183013
17 *198:19 0.00218568
18 *198:6 0.000413715
19 *3069:S *2989:A0 0.000159121
20 *3069:S *3053:A0 4.99619e-05
21 *3069:S *322:28 0.000278111
22 *3069:S *392:27 3.16875e-05
23 *3069:S *424:49 0
24 *3071:S *3071:A0 8.40213e-05
25 *3071:S *320:25 7.23602e-05
26 *3071:S *345:28 0.000105849
27 *3071:S *345:32 4.11678e-06
28 *3071:S *345:106 7.06865e-05
29 *3073:S *3074:A 9.5372e-05
30 *3073:S *3079:A0 0.000513795
31 *3073:S *3080:A 9.28013e-05
32 *3073:S *3170:CLK 2.05056e-05
33 *3073:S *3173:CLK 1.17666e-05
34 *3073:S *3237:A 0.000109175
35 *3073:S *319:22 1.82667e-05
36 *3073:S *319:33 3.14081e-05
37 *3073:S *348:104 5.03144e-05
38 *3073:S *384:27 6.69341e-05
39 *3073:S *384:40 1.34503e-05
40 *3075:S *2918:B1 0
41 *3075:S *3075:A0 2.69867e-05
42 *3075:S *3096:A 0.000184893
43 *3075:S *3111:A1 0.00013533
44 *3075:S *3181:CLK 0.000243436
45 *3075:S *3181:RESET_B 5.80887e-05
46 *3075:S *3234:A 4.82863e-05
47 *3075:S *206:96 0.00114217
48 *3075:S *300:6 0.000201503
49 *3075:S *319:33 8.23457e-05
50 *3081:S *3082:A 1.85674e-05
51 *3081:S *278:50 0.000102587
52 *198:6 *3077:A0 2.20014e-05
53 *198:6 *3078:A 0.000123955
54 *198:6 *206:150 0.000575039
55 *198:6 *390:18 8.52883e-05
56 *198:19 *2871:B1 0.000185398
57 *198:19 *3061:A0 2.15594e-05
58 *198:19 *3077:A0 1.47347e-05
59 *198:19 *206:150 0.000233272
60 *198:19 *291:10 0.00015829
61 *198:19 *390:18 0.000184439
62 *198:29 *3158:CLK 1.83847e-05
63 *198:29 *422:12 4.99619e-05
64 *198:33 *2895:A1 0.000231586
65 *198:33 *2898:B1 0.00191806
66 *198:33 *2915:B1 0
67 *198:33 *2918:B1 0
68 *198:33 *3166:RESET_B 0
69 *198:33 *203:102 0
70 *198:33 *278:16 8.48454e-05
71 *198:33 *278:20 0.000163019
72 *198:33 *278:92 5.42475e-05
73 *198:33 *278:115 0.000171678
74 *198:33 *328:14 0
75 *198:33 *345:38 0
76 *198:33 *345:60 0.00036532
77 *198:33 *430:102 6.80167e-05
78 *198:39 *2898:B1 0.000202256
79 *198:39 *2918:B1 0
80 *198:39 *3096:A 2.92496e-05
81 *198:70 *319:33 4.66108e-05
82 *198:104 *3082:A 2.99935e-05
83 *198:104 *278:50 0.000134301
84 *198:142 *2871:A1 0
85 *198:142 *2871:B1 0.000334403
86 *198:142 *199:6 8.64599e-05
87 *198:142 *199:36 0.000121039
88 *2872:B1 *198:142 7.81954e-05
89 *2896:B1 *198:33 0.000484521
90 *2897:B *3069:S 1.64132e-05
91 *2897:B *198:142 0.000168366
92 *2899:B1 *198:33 9.47454e-05
93 *2919:B1 *198:33 9.30717e-05
94 *2989:S *3069:S 0.000308228
95 *3057:S *3073:S 4.93325e-05
96 *3057:S *3075:S 1.34503e-05
97 *3057:S *198:70 8.34281e-06
98 *3142:D *198:33 0.000180675
99 *3158:D *198:29 2.75145e-05
100 *3174:D *198:104 8.8266e-05
101 *3181:D *3075:S 0.000409036
102 *194:51 *198:19 0.000226834
103 *194:51 *198:142 0.000858876
104 *194:66 *3069:S 0.000333568
105 *194:66 *198:142 0.00015856
106 *194:93 *3069:S 0.000522056
*RES
1 *2973:X *198:6 6.88 
2 *198:6 *3077:S 1.6 
3 *198:6 *198:19 9.065 
4 *198:19 *198:29 21.56 
5 *198:29 *198:31 2 
6 *198:31 *198:33 54.5475 
7 *198:33 *198:39 4.9775 
8 *198:39 *3075:S 32.57 
9 *198:39 *198:70 0.45 
10 *198:70 *3073:S 20.69 
11 *198:70 *3079:S 1.6 
12 *198:29 *198:104 4.365 
13 *198:104 *3071:S 16.13 
14 *198:104 *3081:S 4.15 
15 *198:19 *198:142 13.88 
16 *198:142 *3069:S 23.63 
17 *198:142 *2974:A 1.6 
*END

*D_NET *199 0.0264187
*CONN
*I *2975:S I *D sky130_fd_sc_hd__mux2_1
*I *3011:S I *D sky130_fd_sc_hd__mux2_1
*I *3009:S I *D sky130_fd_sc_hd__mux2_1
*I *3015:S I *D sky130_fd_sc_hd__mux2_1
*I *3003:S I *D sky130_fd_sc_hd__mux2_1
*I *3067:S I *D sky130_fd_sc_hd__mux2_1
*I *3007:S I *D sky130_fd_sc_hd__mux2_1
*I *3017:S I *D sky130_fd_sc_hd__mux2_1
*I *3005:S I *D sky130_fd_sc_hd__mux2_1
*I *3013:S I *D sky130_fd_sc_hd__mux2_1
*I *2974:X O *D sky130_fd_sc_hd__buf_4
*CAP
1 *2975:S 2.41447e-05
2 *3011:S 0.000874166
3 *3009:S 0.000810911
4 *3015:S 0
5 *3003:S 0.000238871
6 *3067:S 6.52739e-05
7 *3007:S 0
8 *3017:S 0
9 *3005:S 0.000410618
10 *3013:S 0.000219841
11 *2974:X 0
12 *199:148 0.000972912
13 *199:118 0.00133508
14 *199:102 0.00147531
15 *199:80 0.00214541
16 *199:63 0.00279948
17 *199:42 0.00227969
18 *199:36 0.00244211
19 *199:6 0.000962093
20 *199:4 0.00057573
21 *2975:S *2949:C 0.000152328
22 *2975:S *2975:A0 8.8266e-05
23 *3003:S *207:66 0
24 *3003:S *351:25 0.000522176
25 *3005:S *3005:A1 7.06739e-05
26 *3005:S *400:12 3.30909e-05
27 *3009:S *2949:B 2.97004e-06
28 *3009:S *3015:A0 0.000343566
29 *3009:S *3118:RESET_B 0.0001857
30 *3009:S *3141:RESET_B 0.000766056
31 *3009:S *203:102 0.000223713
32 *3009:S *332:33 0
33 *3009:S *402:16 1.05476e-05
34 *3009:S *429:35 2.05056e-05
35 *3011:S *2949:C 0.000122331
36 *3011:S *3121:RESET_B 0.000162325
37 *3011:S *3124:CLK 0.000112084
38 *3011:S *202:44 0
39 *3011:S *277:40 8.65961e-05
40 *3011:S *342:49 4.1235e-05
41 *3011:S *344:37 0.000206824
42 *3013:S *339:20 0
43 *3067:S *3067:A0 8.65961e-05
44 *199:42 *2896:A1 1.08036e-05
45 *199:42 *2896:A2 0.000110494
46 *199:63 *3129:RESET_B 0.000184151
47 *199:63 *3197:A 0.000463236
48 *199:63 *279:16 5.74271e-05
49 *199:63 *393:6 3.53974e-05
50 *199:63 *393:23 8.46525e-05
51 *199:63 *401:12 3.65311e-05
52 *199:80 *207:66 0
53 *199:80 *279:16 0
54 *199:80 *320:8 0.00014262
55 *199:80 *351:14 0.000187766
56 *199:80 *351:25 6.75724e-05
57 *199:80 *401:12 1.64056e-05
58 *199:102 *342:10 9.37731e-05
59 *199:102 *342:24 9.27921e-05
60 *199:102 *344:37 0.000819992
61 *199:118 *2949:A 0.000349592
62 *199:118 *2949:B 7.23602e-05
63 *199:118 *2949:C 4.42526e-05
64 *199:118 *2975:A0 7.68414e-06
65 *199:118 *3015:A0 8.8266e-05
66 *199:118 *3241:A 2.75229e-05
67 *199:118 *429:18 7.06865e-05
68 *199:148 *344:37 5.38986e-05
69 *2887:B *199:102 0
70 *2887:B *199:148 0
71 *2897:D *199:42 0.000189724
72 *2906:A *3009:S 3.18219e-05
73 *2916:B1 *199:42 0.000305074
74 *3121:D *3011:S 8.82512e-05
75 *3129:D *199:63 4.47678e-05
76 *153:24 *199:42 1.55253e-05
77 *153:24 *199:118 0.000227055
78 *163:34 *2975:S 4.35432e-05
79 *163:34 *3011:S 6.71882e-05
80 *163:34 *199:118 0.000100516
81 *184:16 *3009:S 0.000368537
82 *184:16 *199:118 0.000673699
83 *194:66 *199:36 1.91597e-05
84 *194:108 *3011:S 0
85 *195:8 *199:36 2.49909e-05
86 *195:115 *3011:S 2.42236e-05
87 *198:142 *199:6 8.64599e-05
88 *198:142 *199:36 0.000121039
*RES
1 *2974:X *199:4 1.6 
2 *199:4 *199:6 5.28 
3 *199:6 *3013:S 8.975 
4 *199:6 *3005:S 12.635 
5 *199:4 *199:36 3.9 
6 *199:36 *199:42 20.145 
7 *199:42 *3017:S 1.6 
8 *199:42 *199:63 20.78 
9 *199:63 *3007:S 3.6 
10 *199:63 *199:80 26.905 
11 *199:80 *3067:S 4.74 
12 *199:80 *3003:S 9.57 
13 *199:36 *199:102 21.23 
14 *199:102 *199:118 18.495 
15 *199:118 *3015:S 1.6 
16 *199:118 *3009:S 25.14 
17 *199:102 *199:148 3.38 
18 *199:148 *3011:S 25.005 
19 *199:148 *2975:S 3.085 
*END

*D_NET *200 0.000904793
*CONN
*I *2976:A I *D sky130_fd_sc_hd__clkbuf_1
*I *2975:X O *D sky130_fd_sc_hd__mux2_1
*CAP
1 *2976:A 0.000210077
2 *2975:X 0.000210077
3 *2976:A *2949:C 0.00015639
4 *2976:A *3124:CLK 0.000159746
5 *2877:A *2976:A 1.08732e-05
6 *3124:D *2976:A 7.00889e-06
7 *153:24 *2976:A 2.0514e-05
8 *195:115 *2976:A 0.000130106
*RES
1 *2975:X *2976:A 11.115 
*END

*D_NET *201 0.000134216
*CONN
*I *2978:A I *D sky130_fd_sc_hd__buf_4
*I *2977:X O *D sky130_fd_sc_hd__and3b_1
*CAP
1 *2978:A 5.53781e-05
2 *2977:X 5.53781e-05
3 *2978:A *2977:C 2.34602e-05
*RES
1 *2977:X *2978:A 4.265 
*END

*D_NET *202 0.034188
*CONN
*I *3097:S I *D sky130_fd_sc_hd__mux2_1
*I *3087:S I *D sky130_fd_sc_hd__mux2_1
*I *3093:S I *D sky130_fd_sc_hd__mux2_1
*I *3089:S I *D sky130_fd_sc_hd__mux2_1
*I *3095:S I *D sky130_fd_sc_hd__mux2_1
*I *3091:S I *D sky130_fd_sc_hd__mux2_1
*I *3085:S I *D sky130_fd_sc_hd__mux2_1
*I *2979:A I *D sky130_fd_sc_hd__buf_4
*I *2978:X O *D sky130_fd_sc_hd__buf_4
*CAP
1 *3097:S 0
2 *3087:S 0.00223742
3 *3093:S 0.000185883
4 *3089:S 0.000804567
5 *3095:S 0
6 *3091:S 0.00010491
7 *3085:S 0.000166759
8 *2979:A 0
9 *2978:X 0.000416471
10 *202:106 0.00457624
11 *202:73 0.00288218
12 *202:44 0.00369575
13 *202:27 0.00258404
14 *202:16 0.00135501
15 *202:12 0.000940819
16 *202:10 0.00305927
17 *3085:S *3085:A0 3.24942e-05
18 *3087:S *2880:B1 0
19 *3087:S *3071:A0 5.83121e-06
20 *3087:S *3097:A0 9.37889e-05
21 *3087:S *3098:A 0
22 *3087:S *3103:S 0.000244508
23 *3087:S *3104:A 0.000160635
24 *3087:S *3161:CLK 0.000118401
25 *3087:S *3161:RESET_B 5.82082e-05
26 *3087:S *3224:A 9.27495e-05
27 *3087:S *206:150 0.000186755
28 *3087:S *296:10 5.20968e-05
29 *3087:S *324:10 0
30 *3087:S *373:14 5.4155e-06
31 *3087:S *373:16 5.74756e-05
32 *3087:S *373:20 0.00027683
33 *3089:S *3233:A 0.000199833
34 *3089:S *3236:A 0.000201508
35 *3089:S *389:18 0.000428764
36 *3089:S *389:32 0.000860919
37 *3091:S *3091:A1 2.75229e-05
38 *3093:S *3093:A0 0.000124007
39 *3093:S *3211:A 0.000350943
40 *202:10 *2977:B 0
41 *202:10 *2983:A 0
42 *202:10 *329:21 0
43 *202:16 *206:29 0.000747563
44 *202:16 *206:40 0.000161623
45 *202:27 *3168:CLK 0
46 *202:27 *206:40 0.00110475
47 *202:27 *428:27 0
48 *202:44 *2929:A1 4.40812e-05
49 *202:44 *2929:B1 0
50 *202:44 *2949:C 0.000502809
51 *202:44 *2995:A0 8.98826e-05
52 *202:44 *2996:A 0
53 *202:44 *3011:A1 0.000308086
54 *202:44 *3012:A 0.000315132
55 *202:44 *3054:A 3.09233e-05
56 *202:44 *3091:A0 6.55328e-05
57 *202:44 *3131:CLK 4.78859e-05
58 *202:44 *3160:CLK 0
59 *202:44 *3209:A 0
60 *202:44 *3210:A 0
61 *202:44 *277:103 0.000205961
62 *202:44 *277:116 1.61461e-05
63 *202:73 *3076:A 0
64 *202:73 *3091:A0 1.71013e-05
65 *202:73 *3095:A0 8.40213e-05
66 *202:73 *3112:A 6.10014e-05
67 *202:73 *3165:CLK 0.000238919
68 *202:73 *3210:A 0
69 *202:73 *277:116 7.03934e-05
70 *202:73 *316:8 0.000173998
71 *202:73 *389:32 0.000740269
72 *202:106 *3061:A0 1.91597e-05
73 *202:106 *3097:A0 8.8266e-05
74 *202:106 *3098:A 6.02035e-05
75 *202:106 *3226:A 0.000576848
76 *2947:B *202:27 0.0010032
77 *2973:A *202:10 0
78 *3011:S *202:44 0
79 *3055:S *202:106 9.0308e-05
80 *3131:D *202:44 8.89751e-05
81 *3132:D *202:16 0
82 *3161:D *3087:S 3.64226e-05
83 *3168:D *202:27 0
84 *3171:D *202:73 0
85 *3189:D *202:73 0.000160641
86 *163:34 *3085:S 7.35729e-05
87 *163:34 *202:44 0.000331939
88 *194:20 *202:106 4.43682e-05
*RES
1 *2978:X *202:10 11.57 
2 *202:10 *202:12 4.59 
3 *202:12 *202:16 12.305 
4 *202:16 *2979:A 3.6 
5 *202:16 *202:27 24.545 
6 *202:27 *3085:S 4.465 
7 *202:27 *202:44 36.5 
8 *202:44 *3091:S 5.085 
9 *202:44 *202:73 42.795 
10 *202:73 *3095:S 1.6 
11 *202:73 *3089:S 20.68 
12 *202:12 *3093:S 6.325 
13 *202:10 *202:106 28.515 
14 *202:106 *3087:S 38.795 
15 *202:106 *3097:S 1.6 
*END

*D_NET *203 0.0364574
*CONN
*I *3083:S I *D sky130_fd_sc_hd__mux2_1
*I *3019:S I *D sky130_fd_sc_hd__mux2_1
*I *3025:S I *D sky130_fd_sc_hd__mux2_1
*I *3031:S I *D sky130_fd_sc_hd__mux2_1
*I *3023:S I *D sky130_fd_sc_hd__mux2_1
*I *3033:S I *D sky130_fd_sc_hd__mux2_1
*I *3029:S I *D sky130_fd_sc_hd__mux2_1
*I *3027:S I *D sky130_fd_sc_hd__mux2_1
*I *2980:S I *D sky130_fd_sc_hd__mux2_1
*I *3021:S I *D sky130_fd_sc_hd__mux2_1
*I *2979:X O *D sky130_fd_sc_hd__buf_4
*CAP
1 *3083:S 0
2 *3019:S 0.00031765
3 *3025:S 0
4 *3031:S 0.000144702
5 *3023:S 0.00301655
6 *3033:S 0
7 *3029:S 0
8 *3027:S 0.000308867
9 *2980:S 7.93714e-05
10 *3021:S 0
11 *2979:X 0
12 *203:140 0.00129412
13 *203:125 0.00277005
14 *203:102 0.00359995
15 *203:71 0.00506296
16 *203:60 0.00272578
17 *203:25 0.00100524
18 *203:14 0.00142096
19 *203:6 0.00127312
20 *203:4 0.00281019
21 *2980:S *2980:A0 2.49909e-05
22 *2980:S *2980:A1 8.73389e-06
23 *3019:S *2924:A1 4.19967e-05
24 *3019:S *3099:A1 2.48641e-05
25 *3019:S *3143:RESET_B 0
26 *3019:S *323:12 0
27 *3019:S *351:38 0.000190421
28 *3023:S *2900:A2 0.000197873
29 *3023:S *3007:A1 0.000193119
30 *3023:S *3008:A 2.90576e-05
31 *3023:S *351:14 0.000112589
32 *3023:S *401:18 9.84125e-05
33 *3027:S *2980:A0 0.000262115
34 *3027:S *3120:CLK 1.26548e-05
35 *3027:S *3176:RESET_B 6.0236e-05
36 *3027:S *325:20 0.00039712
37 *3027:S *340:8 2.72517e-05
38 *3027:S *343:85 0.000859743
39 *3031:S *2919:A2 0.000238137
40 *3031:S *3031:A0 4.66108e-05
41 *203:6 *2912:A1 6.71882e-05
42 *203:6 *2912:A2 0.000353831
43 *203:6 *3029:A0 7.85634e-05
44 *203:6 *428:94 0.000182343
45 *203:14 *3021:A1 0
46 *203:14 *3029:A0 7.35729e-05
47 *203:14 *3184:CLK 0
48 *203:14 *274:10 0.000102545
49 *203:14 *274:54 8.91172e-05
50 *203:14 *274:77 0.000247325
51 *203:14 *322:10 0
52 *203:14 *340:8 0
53 *203:14 *340:22 0
54 *203:14 *408:10 4.70343e-05
55 *203:25 *2980:A0 5.23362e-05
56 *203:25 *3102:A 0
57 *203:25 *3176:RESET_B 7.45794e-05
58 *203:25 *325:20 0.00086736
59 *203:60 *3013:A0 0.000131068
60 *203:60 *3014:A 6.96579e-05
61 *203:60 *3150:CLK 9.66021e-05
62 *203:60 *3150:RESET_B 4.82863e-05
63 *203:60 *326:43 1.68057e-05
64 *203:60 *328:20 1.93437e-05
65 *203:60 *328:24 8.49205e-05
66 *203:60 *414:8 4.82863e-05
67 *203:60 *414:14 6.1357e-05
68 *203:71 *3018:A 4.99619e-05
69 *203:71 *278:10 4.43871e-06
70 *203:71 *278:92 0.000178193
71 *203:71 *278:115 3.33871e-05
72 *203:71 *328:20 0.000291658
73 *203:71 *336:10 0.000254956
74 *203:71 *430:102 7.03219e-05
75 *203:102 *2898:A1 0.000132842
76 *203:102 *2898:A2 2.23407e-05
77 *203:102 *2949:B 6.65606e-05
78 *203:102 *3141:RESET_B 4.24292e-06
79 *203:102 *332:33 0
80 *203:102 *336:10 0.000518951
81 *203:102 *405:12 1.07797e-05
82 *203:102 *413:12 0
83 *203:102 *427:32 0
84 *203:102 *429:55 0
85 *203:102 *430:102 0.000595198
86 *203:125 *2919:A1 3.06569e-06
87 *203:125 *2919:A2 3.09179e-05
88 *203:125 *2923:A2 2.26018e-05
89 *203:125 *3025:A0 3.45679e-05
90 *203:125 *3026:A 0.000305553
91 *203:125 *427:16 5.8486e-05
92 *203:140 *3100:A 2.75145e-05
93 *203:140 *348:18 0.000415853
94 *203:140 *423:29 0.000355131
95 *2919:B1 *3031:S 1.37328e-05
96 *2919:B1 *203:102 1.22676e-05
97 *2919:B1 *203:125 3.03684e-05
98 *2926:A *203:125 0.000429181
99 *2997:S *203:60 0.000256344
100 *3009:S *203:102 0.000223713
101 *3146:D *203:125 4.99619e-05
102 *3152:D *203:14 8.89208e-05
103 *195:48 *3023:S 0.000385044
104 *195:69 *3023:S 1.27899e-05
105 *198:33 *203:102 0
*RES
1 *2979:X *203:4 1.6 
2 *203:4 *203:6 9.42 
3 *203:6 *203:14 20.305 
4 *203:14 *3021:S 1.6 
5 *203:14 *203:25 15.68 
6 *203:25 *2980:S 4.755 
7 *203:25 *3027:S 15.69 
8 *203:6 *3029:S 1.6 
9 *203:4 *203:60 29.49 
10 *203:60 *3033:S 1.6 
11 *203:60 *203:71 12.395 
12 *203:71 *3023:S 44.86 
13 *203:71 *203:102 34.535 
14 *203:102 *3031:S 4.735 
15 *203:102 *203:125 23.835 
16 *203:125 *3025:S 1.6 
17 *203:125 *203:140 21.505 
18 *203:140 *3019:S 12.08 
19 *203:140 *3083:S 1.6 
*END

*D_NET *204 0.000222357
*CONN
*I *2981:A I *D sky130_fd_sc_hd__clkbuf_1
*I *2980:X O *D sky130_fd_sc_hd__mux2_1
*CAP
1 *2981:A 0.000111178
2 *2980:X 0.000111178
*RES
1 *2980:X *2981:A 4.955 
*END

*D_NET *205 0.000684473
*CONN
*I *2983:A I *D sky130_fd_sc_hd__buf_4
*I *2982:X O *D sky130_fd_sc_hd__and3_1
*CAP
1 *2983:A 0.000233405
2 *2982:X 0.000233405
3 *2983:A *2982:C 4.82919e-05
4 *2983:A *206:8 9.66106e-05
5 *2983:A *330:20 4.60584e-05
6 *3188:D *2983:A 2.67022e-05
7 *202:10 *2983:A 0
*RES
1 *2982:X *2983:A 11.205 
*END

*D_NET *206 0.0377167
*CONN
*I *3103:S I *D sky130_fd_sc_hd__mux2_1
*I *3113:S I *D sky130_fd_sc_hd__mux2_1
*I *3111:S I *D sky130_fd_sc_hd__mux2_1
*I *3105:S I *D sky130_fd_sc_hd__mux2_1
*I *3107:S I *D sky130_fd_sc_hd__mux2_1
*I *3101:S I *D sky130_fd_sc_hd__mux2_1
*I *2984:A I *D sky130_fd_sc_hd__buf_4
*I *3109:S I *D sky130_fd_sc_hd__mux2_1
*I *2983:X O *D sky130_fd_sc_hd__buf_4
*CAP
1 *3103:S 0.00166456
2 *3113:S 0
3 *3111:S 0
4 *3105:S 0
5 *3107:S 2.43002e-05
6 *3101:S 0.000258265
7 *2984:A 0
8 *3109:S 0.000125421
9 *2983:X 2.08101e-05
10 *206:150 0.00334951
11 *206:110 0.00225721
12 *206:96 0.00322765
13 *206:61 0.00312804
14 *206:40 0.00282708
15 *206:29 0.000888431
16 *206:8 0.000677196
17 *206:6 0.00180463
18 *3101:S *362:33 0.000346341
19 *3103:S *3056:A 7.00889e-06
20 *3103:S *3072:A 0.000159784
21 *3103:S *3081:A0 0
22 *3103:S *3104:A 3.45588e-05
23 *3103:S *3113:A0 8.8266e-05
24 *3103:S *3161:CLK 0.000109956
25 *3103:S *3161:RESET_B 0
26 *3103:S *3169:CLK 5.06989e-05
27 *3103:S *3169:RESET_B 2.65337e-05
28 *3103:S *3205:A 1.83756e-05
29 *3103:S *3228:A 0.000167003
30 *3103:S *279:88 0
31 *3103:S *296:10 5.30673e-05
32 *3103:S *304:10 6.28843e-05
33 *3103:S *345:8 0.000185778
34 *3103:S *345:16 7.35813e-05
35 *3103:S *345:28 1.43846e-05
36 *3103:S *345:106 0
37 *3107:S *3107:A0 2.75145e-05
38 *3109:S *3109:A0 9.80664e-05
39 *3109:S *3109:A1 0.00012496
40 *3109:S *3213:A 0.000201508
41 *3109:S *390:26 0.000248501
42 *206:8 *3110:A 8.53691e-05
43 *206:8 *3213:A 0.000114912
44 *206:8 *390:26 0.000546246
45 *206:29 *2931:A1 8.97832e-05
46 *206:29 *2931:B1 0
47 *206:40 *2931:A1 1.52945e-05
48 *206:40 *273:26 0.000133106
49 *206:40 *428:27 0.000436807
50 *206:40 *428:29 4.40899e-05
51 *206:61 *2929:B1 0
52 *206:61 *2949:C 0.000275369
53 *206:61 *2985:A0 7.24779e-05
54 *206:61 *2995:A0 0
55 *206:61 *3011:A1 0
56 *206:61 *3160:CLK 0
57 *206:61 *3187:RESET_B 0
58 *206:61 *3209:A 7.55391e-05
59 *206:61 *3210:A 0
60 *206:61 *3271:A 0.000116158
61 *206:61 *343:120 0
62 *206:61 *362:33 0.00014719
63 *206:61 *427:78 0
64 *206:61 *427:96 0
65 *206:61 *428:16 0.000117832
66 *206:96 *3059:A0 7.47215e-05
67 *206:96 *3075:A0 4.77757e-05
68 *206:96 *3076:A 0
69 *206:96 *3107:A0 2.16917e-05
70 *206:96 *3107:A1 0.000306977
71 *206:96 *3111:A0 9.80032e-06
72 *206:96 *3111:A1 4.66108e-05
73 *206:96 *3189:RESET_B 0.000471307
74 *206:96 *3210:A 8.65961e-05
75 *206:96 *3234:A 4.82863e-05
76 *206:96 *277:123 0.000271219
77 *206:96 *298:10 0
78 *206:96 *389:32 0.000175525
79 *206:110 *2938:B1 3.56353e-05
80 *206:110 *3089:A1 7.23602e-05
81 *206:110 *3105:A1 0.000229203
82 *206:110 *3112:A 0
83 *206:110 *3178:RESET_B 0.000187064
84 *206:110 *3189:RESET_B 0.000124851
85 *206:110 *3227:A 0.000301849
86 *206:110 *3232:A 0.000239813
87 *206:110 *3233:A 0
88 *206:110 *319:14 0.00217861
89 *206:150 *2915:B1 0.000117832
90 *206:150 *3077:A0 7.33437e-05
91 *206:150 *3097:A0 0.000160401
92 *206:150 *3113:A0 6.52265e-05
93 *206:150 *3114:A 5.77491e-05
94 *206:150 *3164:CLK 4.66826e-05
95 *206:150 *3164:RESET_B 0.000240772
96 *206:150 *3190:CLK 4.82919e-05
97 *206:150 *3228:A 5.4751e-05
98 *206:150 *278:28 0.000264404
99 *206:150 *291:10 0.000124007
100 *206:150 *390:26 0.000881104
101 *2917:B *3101:S 5.16418e-05
102 *2937:A *3101:S 1.94805e-05
103 *2947:B *206:61 0.0010082
104 *2983:A *206:8 9.66106e-05
105 *3055:S *206:150 0
106 *3075:S *206:96 0.00114217
107 *3087:S *3103:S 0.000244508
108 *3087:S *206:150 0.000186755
109 *3139:D *206:61 0
110 *3165:D *206:110 0.000157602
111 *3169:D *3103:S 4.33358e-05
112 *3182:D *206:150 0.000124007
113 *3185:D *3103:S 4.87317e-05
114 *3189:D *206:110 0
115 *3190:D *206:150 8.49205e-05
116 *198:6 *206:150 0.000575039
117 *198:19 *206:150 0.000233272
118 *202:16 *206:29 0.000747563
119 *202:16 *206:40 0.000161623
120 *202:27 *206:40 0.00110475
*RES
1 *2983:X *206:6 1.96 
2 *206:6 *206:8 4.935 
3 *206:8 *3109:S 6.235 
4 *206:8 *206:29 12.605 
5 *206:29 *2984:A 3.6 
6 *206:29 *206:40 16.895 
7 *206:40 *3101:S 9.425 
8 *206:40 *206:61 45.88 
9 *206:61 *3107:S 2.05 
10 *206:61 *206:96 29.11 
11 *206:96 *206:110 48.285 
12 *206:110 *3105:S 3.6 
13 *206:96 *3111:S 1.6 
14 *206:6 *206:150 39.7 
15 *206:150 *3113:S 1.6 
16 *206:150 *3103:S 37.155 
*END

*D_NET *207 0.0393038
*CONN
*I *2985:S I *D sky130_fd_sc_hd__mux2_1
*I *3047:S I *D sky130_fd_sc_hd__mux2_1
*I *3043:S I *D sky130_fd_sc_hd__mux2_1
*I *3037:S I *D sky130_fd_sc_hd__mux2_1
*I *3045:S I *D sky130_fd_sc_hd__mux2_1
*I *3041:S I *D sky130_fd_sc_hd__mux2_1
*I *3035:S I *D sky130_fd_sc_hd__mux2_1
*I *3099:S I *D sky130_fd_sc_hd__mux2_1
*I *3039:S I *D sky130_fd_sc_hd__mux2_1
*I *3049:S I *D sky130_fd_sc_hd__mux2_1
*I *2984:X O *D sky130_fd_sc_hd__buf_4
*CAP
1 *2985:S 0.000311162
2 *3047:S 0.00176191
3 *3043:S 0
4 *3037:S 4.10884e-05
5 *3045:S 0.000167948
6 *3041:S 0.000710717
7 *3035:S 0
8 *3099:S 6.04299e-05
9 *3039:S 9.10066e-06
10 *3049:S 0
11 *2984:X 0
12 *207:149 0.00198813
13 *207:137 0.00164726
14 *207:118 0.00195008
15 *207:105 0.0013053
16 *207:77 0.000889586
17 *207:66 0.00181316
18 *207:45 0.00165749
19 *207:43 0.00194867
20 *207:22 0.00352116
21 *207:4 0.00198526
22 *2985:S *2985:A0 1.47347e-05
23 *2985:S *318:24 0.000327652
24 *2985:S *325:41 4.00541e-06
25 *3037:S *3102:A 9.91257e-05
26 *3037:S *322:28 0.000201503
27 *3041:S *2943:A2 0.000163199
28 *3041:S *2945:A2 0.000173005
29 *3041:S *3036:A 5.30673e-05
30 *3041:S *321:10 4.21314e-05
31 *3041:S *415:18 0.000115035
32 *3041:S *423:14 0
33 *3045:S *2911:B1 0
34 *3045:S *2931:A2 8.8266e-05
35 *3045:S *2932:A2 0.000185411
36 *3045:S *339:38 0
37 *3045:S *339:54 4.91189e-05
38 *3045:S *420:8 4.82863e-05
39 *3045:S *420:21 8.65961e-05
40 *3045:S *428:109 8.08153e-06
41 *3047:S *2870:A1 1.17309e-05
42 *3047:S *2909:B1 0
43 *3047:S *2929:A2 0.000427876
44 *3047:S *2995:A1 4.64617e-05
45 *3047:S *3047:A0 3.72916e-05
46 *3047:S *3048:A 3.71158e-05
47 *3047:S *3131:CLK 8.88715e-05
48 *3047:S *332:10 0
49 *3047:S *395:6 1.4399e-05
50 *3047:S *419:17 0.000347029
51 *3047:S *427:32 8.06152e-05
52 *3099:S *3099:A0 8.8266e-05
53 *207:22 *2998:A 0.000161515
54 *207:22 *3049:A0 8.8266e-05
55 *207:22 *3132:RESET_B 0.00149887
56 *207:22 *3140:RESET_B 0.000187752
57 *207:22 *3200:A 4.82919e-05
58 *207:22 *339:8 4.82863e-05
59 *207:22 *339:20 8.53113e-06
60 *207:22 *428:42 7.5919e-05
61 *207:43 *2895:A1 4.82919e-05
62 *207:43 *2895:A2 6.43122e-05
63 *207:43 *2895:B1 0.00057467
64 *207:43 *2940:B1 8.65905e-05
65 *207:43 *3024:A 3.1191e-05
66 *207:43 *3039:A0 6.06948e-05
67 *207:43 *3049:A0 2.55546e-05
68 *207:43 *3103:A0 0.000223916
69 *207:43 *3132:RESET_B 0
70 *207:43 *3204:A 0.00210846
71 *207:43 *3219:A 0.000188069
72 *207:43 *3240:A 0.000112717
73 *207:43 *333:8 0.00133781
74 *207:43 *346:41 0
75 *207:43 *346:67 0
76 *207:43 *351:14 0
77 *207:43 *417:14 0.000115026
78 *207:43 *422:21 0.000119762
79 *207:66 *2904:A2 1.01661e-05
80 *207:66 *2905:A1 0.000136877
81 *207:66 *3003:A1 0.000296775
82 *207:66 *3068:A 6.93308e-05
83 *207:66 *3099:A1 0.000342621
84 *207:66 *3135:CLK 3.86607e-05
85 *207:66 *321:12 0.000831693
86 *207:66 *321:14 0.000252977
87 *207:66 *346:67 0
88 *207:66 *351:14 0
89 *207:66 *351:25 0
90 *207:66 *351:38 0.000957499
91 *207:66 *423:39 5.33085e-05
92 *207:77 *321:10 9.50342e-06
93 *207:77 *321:12 0.000352768
94 *207:77 *423:14 0
95 *207:105 *2911:A1 3.96737e-05
96 *207:105 *2998:A 0
97 *207:105 *428:42 0.00023468
98 *207:105 *428:109 4.82863e-05
99 *207:118 *3037:A0 0
100 *207:118 *339:38 0
101 *207:118 *339:91 0
102 *207:118 *424:107 0.000191932
103 *207:118 *428:109 7.21296e-06
104 *207:137 *2913:B1 0.00041497
105 *207:137 *2927:A 0
106 *207:137 *2961:A1 0
107 *207:137 *2980:A1 0
108 *207:137 *3043:A1 1.94892e-05
109 *207:137 *3086:A 7.4027e-05
110 *207:137 *3102:A 0
111 *207:137 *3243:A 0.000107627
112 *207:137 *318:24 8.40269e-05
113 *207:137 *325:31 2.14527e-05
114 *207:137 *424:107 0.00028781
115 *207:149 *2909:A1 7.93841e-05
116 *207:149 *2909:B1 0
117 *207:149 *3043:A1 5.03515e-05
118 *207:149 *332:10 0
119 *207:149 *411:23 7.06865e-05
120 *2870:B1 *3047:S 4.77757e-05
121 *2877:A *3047:S 0.00013427
122 *2896:B1 *207:43 0.000106078
123 *2912:B1 *207:105 8.65961e-05
124 *2912:B1 *207:118 6.28843e-05
125 *2917:A *207:137 0.000691537
126 *2917:B *207:118 0
127 *2927:B *207:137 0
128 *2932:B1 *3045:S 3.00381e-05
129 *2936:B1 *207:22 4.60584e-05
130 *2936:B1 *207:43 0.000195476
131 *2937:A *207:149 0
132 *2937:B *207:105 8.8266e-05
133 *2937:B *207:118 0
134 *2943:B1 *3041:S 8.82557e-05
135 *2945:B1 *3041:S 6.77417e-05
136 *2950:A *207:66 0.000198945
137 *3003:S *207:66 0
138 *3120:D *207:137 0.000179015
139 *3126:D *207:137 0.000175643
140 *3126:D *207:149 0.000111337
141 *3157:D *3047:S 8.8266e-05
142 *3184:D *207:118 0
143 *3184:D *207:137 0
144 *199:80 *207:66 0
*RES
1 *2984:X *207:4 1.6 
2 *207:4 *207:22 32.89 
3 *207:22 *3049:S 1.6 
4 *207:22 *207:43 49.6475 
5 *207:43 *207:45 0.795 
6 *207:45 *3039:S 3.8325 
7 *207:45 *207:66 39.3475 
8 *207:66 *3099:S 4.74 
9 *207:66 *207:77 4.185 
10 *207:77 *3035:S 3.6 
11 *207:77 *3041:S 16.425 
12 *207:4 *207:105 8.585 
13 *207:105 *3045:S 7.83 
14 *207:105 *207:118 14.13 
15 *207:118 *3037:S 5.43 
16 *207:118 *207:137 28.445 
17 *207:137 *207:149 6.785 
18 *207:149 *3043:S 3.6 
19 *207:149 *3047:S 27.945 
20 *207:137 *2985:S 5.77 
*END

*D_NET *208 0.000315778
*CONN
*I *2986:A I *D sky130_fd_sc_hd__clkbuf_1
*I *2985:X O *D sky130_fd_sc_hd__mux2_1
*CAP
1 *2986:A 0.000101336
2 *2985:X 0.000101336
3 *2986:A *2909:A1 4.28112e-06
4 *2986:A *2961:A1 3.72007e-05
5 *2937:A *2986:A 7.1624e-05
*RES
1 *2985:X *2986:A 9.135 
*END

*D_NET *209 0.00110785
*CONN
*I *2988:A I *D sky130_fd_sc_hd__clkbuf_1
*I *2987:X O *D sky130_fd_sc_hd__mux2_1
*CAP
1 *2988:A 0.000394173
2 *2987:X 0.000394173
3 *2988:A *2953:A1 4.41506e-05
4 *2988:A *3127:CLK 4.66108e-05
5 *2988:A *423:69 2.49909e-05
6 *2885:B1 *2988:A 7.70631e-05
7 *3127:D *2988:A 6.52265e-05
8 *163:20 *2988:A 6.14602e-05
*RES
1 *2987:X *2988:A 13.455 
*END

*D_NET *210 0.000309497
*CONN
*I *2990:A I *D sky130_fd_sc_hd__clkbuf_1
*I *2989:X O *D sky130_fd_sc_hd__mux2_1
*CAP
1 *2990:A 9.42388e-05
2 *2989:X 9.42388e-05
3 *2989:S *2990:A 0.000121019
*RES
1 *2989:X *2990:A 4.955 
*END

*D_NET *211 0.000251366
*CONN
*I *2992:A I *D sky130_fd_sc_hd__clkbuf_1
*I *2991:X O *D sky130_fd_sc_hd__mux2_1
*CAP
1 *2992:A 5.94538e-05
2 *2991:X 5.94538e-05
3 *2992:A *2991:A1 8.46818e-05
4 *2992:A *346:77 4.77769e-05
*RES
1 *2991:X *2992:A 4.61 
*END

*D_NET *212 0.00104683
*CONN
*I *2994:A I *D sky130_fd_sc_hd__clkbuf_1
*I *2993:X O *D sky130_fd_sc_hd__mux2_1
*CAP
1 *2994:A 0.000415269
2 *2993:X 0.000415269
3 *2994:A *3130:RESET_B 2.53494e-05
4 *2994:A *332:97 2.12738e-05
5 *2994:A *348:18 8.13946e-05
6 *2994:A *348:48 4.21865e-06
7 *2886:A *2994:A 8.4059e-05
*RES
1 *2993:X *2994:A 12.69 
*END

*D_NET *213 0.00079275
*CONN
*I *2996:A I *D sky130_fd_sc_hd__clkbuf_1
*I *2995:X O *D sky130_fd_sc_hd__mux2_1
*CAP
1 *2996:A 0.000208201
2 *2995:X 0.000208201
3 *2996:A *3131:CLK 0
4 *2996:A *3131:RESET_B 0.000229203
5 *2996:A *277:90 7.35729e-05
6 *2996:A *427:72 7.35729e-05
7 *3131:D *2996:A 0
8 *194:108 *2996:A 0
9 *202:44 *2996:A 0
*RES
1 *2995:X *2996:A 12.015 
*END

*D_NET *214 0.00109043
*CONN
*I *2998:A I *D sky130_fd_sc_hd__clkbuf_1
*I *2997:X O *D sky130_fd_sc_hd__mux2_1
*CAP
1 *2998:A 0.000182317
2 *2997:X 0.000182317
3 *2998:A *2997:A0 8.53113e-06
4 *2998:A *3013:A0 0
5 *2998:A *3200:A 4.80285e-05
6 *2998:A *339:20 4.5783e-05
7 *2998:A *428:42 0.000461941
8 *2997:S *2998:A 0
9 *207:22 *2998:A 0.000161515
10 *207:105 *2998:A 0
*RES
1 *2997:X *2998:A 12.93 
*END

*D_NET *215 0.000942878
*CONN
*I *3000:A I *D sky130_fd_sc_hd__clkbuf_1
*I *2999:X O *D sky130_fd_sc_hd__mux2_1
*CAP
1 *3000:A 0.000338838
2 *2999:X 0.000338838
3 *3000:A *2949:D 0.000116219
4 *2995:S *3000:A 0
5 *2999:S *3000:A 0.000148983
*RES
1 *2999:X *3000:A 12.135 
*END

*D_NET *216 0.000343684
*CONN
*I *3002:A I *D sky130_fd_sc_hd__clkbuf_1
*I *3001:X O *D sky130_fd_sc_hd__mux2_1
*CAP
1 *3002:A 6.89813e-05
2 *3001:X 6.89813e-05
3 *3065:S *3002:A 8.46818e-05
4 *195:33 *3002:A 0.000121039
*RES
1 *3001:X *3002:A 4.955 
*END

*D_NET *217 0.000261915
*CONN
*I *3004:A I *D sky130_fd_sc_hd__clkbuf_1
*I *3003:X O *D sky130_fd_sc_hd__mux2_1
*CAP
1 *3004:A 0.000106235
2 *3003:X 0.000106235
3 *3135:D *3004:A 4.94457e-05
*RES
1 *3003:X *3004:A 5.06 
*END

*D_NET *218 0.000966843
*CONN
*I *3006:A I *D sky130_fd_sc_hd__clkbuf_1
*I *3005:X O *D sky130_fd_sc_hd__mux2_1
*CAP
1 *3006:A 0.000197512
2 *3005:X 0.000197512
3 *3006:A *2893:A1 0.000100323
4 *3006:A *2893:A2 4.85893e-05
5 *3006:A *2893:B1 8.65905e-05
6 *3006:A *3231:A 3.57349e-05
7 *3006:A *295:10 9.30717e-05
8 *2894:B1 *3006:A 0.00015896
9 *2937:D *3006:A 4.85494e-05
*RES
1 *3005:X *3006:A 12.15 
*END

*D_NET *219 0.000169313
*CONN
*I *3008:A I *D sky130_fd_sc_hd__clkbuf_1
*I *3007:X O *D sky130_fd_sc_hd__mux2_1
*CAP
1 *3008:A 4.36444e-05
2 *3007:X 4.36444e-05
3 *3008:A *401:18 5.29669e-05
4 *3023:S *3008:A 2.90576e-05
*RES
1 *3007:X *3008:A 4.265 
*END

*D_NET *220 0.00113834
*CONN
*I *3010:A I *D sky130_fd_sc_hd__clkbuf_1
*I *3009:X O *D sky130_fd_sc_hd__mux2_1
*CAP
1 *3010:A 0.000158122
2 *3009:X 0.000158122
3 *3010:A *2957:A0 6.07575e-06
4 *3010:A *2957:A1 1.91597e-05
5 *3010:A *3009:A1 0.000232571
6 *3010:A *332:60 7.47457e-05
7 *2906:D *3010:A 0.000489541
*RES
1 *3009:X *3010:A 8.405 
*END

*D_NET *221 0.000848523
*CONN
*I *3012:A I *D sky130_fd_sc_hd__clkbuf_1
*I *3011:X O *D sky130_fd_sc_hd__mux2_1
*CAP
1 *3012:A 0.000219244
2 *3011:X 0.000219244
3 *3012:A *2889:A2 0
4 *3012:A *3011:A1 4.82919e-05
5 *3012:A *277:17 4.66108e-05
6 *3012:A *403:19 0
7 *202:44 *3012:A 0.000315132
*RES
1 *3011:X *3012:A 11.775 
*END

*D_NET *222 0.000357636
*CONN
*I *3014:A I *D sky130_fd_sc_hd__clkbuf_1
*I *3013:X O *D sky130_fd_sc_hd__mux2_1
*CAP
1 *3014:A 6.15519e-05
2 *3013:X 6.15519e-05
3 *3014:A *326:43 0.000164874
4 *203:60 *3014:A 6.96579e-05
*RES
1 *3013:X *3014:A 5.3 
*END

*D_NET *223 0.00128154
*CONN
*I *3016:A I *D sky130_fd_sc_hd__clkbuf_1
*I *3015:X O *D sky130_fd_sc_hd__mux2_1
*CAP
1 *3016:A 0.000435747
2 *3015:X 0.000435747
3 *3016:A *2887:A 0.000129283
4 *3016:A *2949:A 3.67779e-05
5 *3016:A *3202:A 0
6 *3016:A *3241:A 9.3062e-06
7 *2888:A *3016:A 0
8 *3141:D *3016:A 0
9 *184:16 *3016:A 0.00023468
*RES
1 *3015:X *3016:A 14.325 
*END

*D_NET *224 0.00115619
*CONN
*I *3018:A I *D sky130_fd_sc_hd__clkbuf_1
*I *3017:X O *D sky130_fd_sc_hd__mux2_1
*CAP
1 *3018:A 0.000119989
2 *3017:X 0.000119989
3 *3018:A *2895:A1 0.000136572
4 *3018:A *3166:RESET_B 0.000136572
5 *3018:A *278:8 0.00022786
6 *3018:A *328:20 0.00034356
7 *3142:D *3018:A 2.16833e-05
8 *203:71 *3018:A 4.99619e-05
*RES
1 *3017:X *3018:A 12.045 
*END

*D_NET *225 0.00028497
*CONN
*I *3020:A I *D sky130_fd_sc_hd__clkbuf_1
*I *3019:X O *D sky130_fd_sc_hd__mux2_1
*CAP
1 *3020:A 7.92001e-05
2 *3019:X 7.92001e-05
3 *3020:A *3019:A0 0
4 *2925:B1 *3020:A 0.00012657
*RES
1 *3019:X *3020:A 4.955 
*END

*D_NET *226 0.000268713
*CONN
*I *3022:A I *D sky130_fd_sc_hd__clkbuf_1
*I *3021:X O *D sky130_fd_sc_hd__mux2_1
*CAP
1 *3022:A 0.000132354
2 *3021:X 0.000132354
3 *3022:A *3021:A1 4.00541e-06
*RES
1 *3021:X *3022:A 5.3 
*END

*D_NET *227 0.00174039
*CONN
*I *3024:A I *D sky130_fd_sc_hd__clkbuf_1
*I *3023:X O *D sky130_fd_sc_hd__mux2_1
*CAP
1 *3024:A 0.000637557
2 *3023:X 0.000637557
3 *3024:A *3039:A0 6.90254e-05
4 *3024:A *3145:CLK 0.000108705
5 *3024:A *3145:RESET_B 1.306e-05
6 *3024:A *323:26 3.72742e-05
7 *3024:A *346:29 9.94554e-06
8 *3024:A *346:33 4.10576e-05
9 *3024:A *417:14 0.000115026
10 *3145:D *3024:A 3.99879e-05
11 *207:43 *3024:A 3.1191e-05
*RES
1 *3023:X *3024:A 16.71 
*END

*D_NET *228 0.000721874
*CONN
*I *3026:A I *D sky130_fd_sc_hd__clkbuf_1
*I *3025:X O *D sky130_fd_sc_hd__mux2_1
*CAP
1 *3026:A 0.000104456
2 *3025:X 0.000104456
3 *3026:A *2923:A2 0.000120819
4 *2923:B1 *3026:A 8.65905e-05
5 *203:125 *3026:A 0.000305553
*RES
1 *3025:X *3026:A 6.785 
*END

*D_NET *229 0.000192415
*CONN
*I *3028:A I *D sky130_fd_sc_hd__clkbuf_1
*I *3027:X O *D sky130_fd_sc_hd__mux2_1
*CAP
1 *3028:A 6.96739e-05
2 *3027:X 6.96739e-05
3 *3028:A *318:24 5.30673e-05
*RES
1 *3027:X *3028:A 4.61 
*END

*D_NET *230 0.000858535
*CONN
*I *3030:A I *D sky130_fd_sc_hd__clkbuf_1
*I *3029:X O *D sky130_fd_sc_hd__mux2_1
*CAP
1 *3030:A 0.000247438
2 *3029:X 0.000247438
3 *3030:A *274:10 0.000177561
4 *3030:A *274:12 0.000131401
5 *3030:A *274:16 8.53113e-06
6 *3148:D *3030:A 4.61658e-05
*RES
1 *3029:X *3030:A 12.12 
*END

*D_NET *231 0.00151805
*CONN
*I *3032:A I *D sky130_fd_sc_hd__clkbuf_1
*I *3031:X O *D sky130_fd_sc_hd__mux2_1
*CAP
1 *3032:A 0.000555437
2 *3031:X 0.000555437
3 *3032:A *3189:RESET_B 0.000143266
4 *3032:A *327:31 0.000205372
5 *3032:A *429:67 5.72004e-05
6 *3133:D *3032:A 1.34124e-06
*RES
1 *3031:X *3032:A 14.805 
*END

*D_NET *232 0.000964445
*CONN
*I *3034:A I *D sky130_fd_sc_hd__clkbuf_1
*I *3033:X O *D sky130_fd_sc_hd__mux2_1
*CAP
1 *3034:A 0.000328815
2 *3033:X 0.000328815
3 *3034:A *341:65 0
4 *3034:A *430:30 7.4027e-05
5 *3034:A *430:36 3.26889e-05
6 *2937:D *3034:A 0.000200099
*RES
1 *3033:X *3034:A 13.035 
*END

*D_NET *233 0.000646679
*CONN
*I *3036:A I *D sky130_fd_sc_hd__clkbuf_1
*I *3035:X O *D sky130_fd_sc_hd__mux2_1
*CAP
1 *3036:A 0.00019268
2 *3035:X 0.00019268
3 *3036:A *3183:CLK 0
4 *3036:A *347:80 9.24049e-05
5 *3036:A *347:91 7.53115e-05
6 *3041:S *3036:A 5.30673e-05
7 *3151:D *3036:A 4.05358e-05
*RES
1 *3035:X *3036:A 11.415 
*END

*D_NET *234 0.00050071
*CONN
*I *3038:A I *D sky130_fd_sc_hd__clkbuf_1
*I *3037:X O *D sky130_fd_sc_hd__mux2_1
*CAP
1 *3038:A 0.000180285
2 *3037:X 0.000180285
3 *3038:A *3144:RESET_B 3.50033e-05
4 *3038:A *3184:RESET_B 1.85674e-05
5 *3038:A *325:20 7.4027e-05
6 *3038:A *339:91 5.53249e-06
7 *3184:D *3038:A 7.00889e-06
*RES
1 *3037:X *3038:A 10.275 
*END

*D_NET *235 0.000412819
*CONN
*I *3040:A I *D sky130_fd_sc_hd__clkbuf_1
*I *3039:X O *D sky130_fd_sc_hd__mux2_1
*CAP
1 *3040:A 0.000120839
2 *3039:X 0.000120839
3 *3040:A *2921:A2 1.14192e-05
4 *3040:A *323:32 0.000159722
*RES
1 *3039:X *3040:A 5.75 
*END

*D_NET *236 0.00146236
*CONN
*I *3042:A I *D sky130_fd_sc_hd__clkbuf_1
*I *3041:X O *D sky130_fd_sc_hd__mux2_1
*CAP
1 *3042:A 0.00053217
2 *3041:X 0.00053217
3 *3042:A *2922:A2 3.86607e-05
4 *3042:A *3146:CLK 0.000100323
5 *2923:B1 *3042:A 3.86607e-05
6 *182:12 *3042:A 0.000220374
*RES
1 *3041:X *3042:A 14.655 
*END

*D_NET *237 0.00125062
*CONN
*I *3044:A I *D sky130_fd_sc_hd__clkbuf_1
*I *3043:X O *D sky130_fd_sc_hd__mux2_1
*CAP
1 *3044:A 0.000410589
2 *3043:X 0.000410589
3 *3044:A *3155:CLK 0.000234777
4 *3044:A *276:99 0
5 *3044:A *338:28 2.19562e-06
6 *3044:A *340:8 0.000143266
7 *3044:A *419:6 4.92062e-05
*RES
1 *3043:X *3044:A 13.425 
*END

*D_NET *238 0.000710521
*CONN
*I *3046:A I *D sky130_fd_sc_hd__clkbuf_1
*I *3045:X O *D sky130_fd_sc_hd__mux2_1
*CAP
1 *3046:A 0.000335934
2 *3045:X 0.000335934
3 *3046:A *2931:B1 0
4 *3046:A *339:56 3.86529e-05
*RES
1 *3045:X *3046:A 12.24 
*END

*D_NET *239 0.000204538
*CONN
*I *3048:A I *D sky130_fd_sc_hd__clkbuf_1
*I *3047:X O *D sky130_fd_sc_hd__mux2_1
*CAP
1 *3048:A 5.91079e-05
2 *3047:X 5.91079e-05
3 *3048:A *427:32 4.92062e-05
4 *3047:S *3048:A 3.71158e-05
*RES
1 *3047:X *3048:A 4.61 
*END

*D_NET *240 0.000384831
*CONN
*I *3050:A I *D sky130_fd_sc_hd__clkbuf_1
*I *3049:X O *D sky130_fd_sc_hd__mux2_1
*CAP
1 *3050:A 0.000111269
2 *3049:X 0.000111269
3 *3050:A *341:10 9.50342e-06
4 *3050:A *341:49 6.45236e-05
5 *3050:A *344:12 8.8266e-05
*RES
1 *3049:X *3050:A 9.48 
*END

*D_NET *241 0.000914635
*CONN
*I *3052:A I *D sky130_fd_sc_hd__clkbuf_1
*I *3051:X O *D sky130_fd_sc_hd__mux2_1
*CAP
1 *3052:A 0.000296179
2 *3051:X 0.000296179
3 *3052:A *2953:A1 0
4 *3052:A *3159:CLK 4.18603e-06
5 *3052:A *320:8 0
6 *2950:A *3052:A 0.000318091
*RES
1 *3051:X *3052:A 11.7 
*END

*D_NET *242 0.000512701
*CONN
*I *3054:A I *D sky130_fd_sc_hd__clkbuf_1
*I *3053:X O *D sky130_fd_sc_hd__mux2_1
*CAP
1 *3054:A 0.000210037
2 *3053:X 0.000210037
3 *3054:A *3160:CLK 0
4 *3160:D *3054:A 6.17032e-05
5 *194:108 *3054:A 0
6 *202:44 *3054:A 3.09233e-05
*RES
1 *3053:X *3054:A 10.875 
*END

*D_NET *243 0.000788442
*CONN
*I *3056:A I *D sky130_fd_sc_hd__clkbuf_1
*I *3055:X O *D sky130_fd_sc_hd__mux2_1
*CAP
1 *3056:A 0.000305174
2 *3055:X 0.000305174
3 *3056:A *3055:A0 0
4 *3056:A *3161:CLK 0.000123313
5 *3056:A *345:16 0
6 *3056:A *345:28 0
7 *3103:S *3056:A 7.00889e-06
8 *3161:D *3056:A 4.77719e-05
*RES
1 *3055:X *3056:A 11.565 
*END

*D_NET *244 0.000712678
*CONN
*I *3058:A I *D sky130_fd_sc_hd__clkbuf_1
*I *3057:X O *D sky130_fd_sc_hd__mux2_1
*CAP
1 *3058:A 0.000331733
2 *3057:X 0.000331733
3 *3058:A *2882:B1 4.92121e-05
*RES
1 *3057:X *3058:A 12.39 
*END

*D_NET *245 0.000599899
*CONN
*I *3060:A I *D sky130_fd_sc_hd__clkbuf_1
*I *3059:X O *D sky130_fd_sc_hd__mux2_1
*CAP
1 *3060:A 0.000244949
2 *3059:X 0.000244949
3 *3163:D *3060:A 9.91257e-05
4 *194:108 *3060:A 1.08758e-05
*RES
1 *3059:X *3060:A 7.37 
*END

*D_NET *246 0.00126982
*CONN
*I *3062:A I *D sky130_fd_sc_hd__clkbuf_1
*I *3061:X O *D sky130_fd_sc_hd__mux2_1
*CAP
1 *3062:A 0.000361822
2 *3061:X 0.000361822
3 *3062:A *275:39 0.000160658
4 *3062:A *275:47 9.14049e-05
5 *3055:S *3062:A 0.000275542
6 *3164:D *3062:A 1.85674e-05
*RES
1 *3061:X *3062:A 13.245 
*END

*D_NET *247 0.000242405
*CONN
*I *3064:A I *D sky130_fd_sc_hd__clkbuf_1
*I *3063:X O *D sky130_fd_sc_hd__mux2_1
*CAP
1 *3064:A 5.87222e-05
2 *3063:X 5.87222e-05
3 *3064:A *3063:A0 0
4 *3064:A *3111:A1 9.22715e-05
5 *3063:S *3064:A 0
6 *194:125 *3064:A 3.26889e-05
*RES
1 *3063:X *3064:A 4.61 
*END

*D_NET *248 0.000463931
*CONN
*I *3066:A I *D sky130_fd_sc_hd__clkbuf_1
*I *3065:X O *D sky130_fd_sc_hd__mux2_1
*CAP
1 *3066:A 0.000152963
2 *3065:X 0.000152963
3 *3065:S *3066:A 0.000158005
*RES
1 *3065:X *3066:A 5.75 
*END

*D_NET *249 0.000707724
*CONN
*I *3068:A I *D sky130_fd_sc_hd__clkbuf_1
*I *3067:X O *D sky130_fd_sc_hd__mux2_1
*CAP
1 *3068:A 0.00029042
2 *3067:X 0.00029042
3 *3068:A *279:52 5.05437e-05
4 *3167:D *3068:A 7.00889e-06
5 *207:66 *3068:A 6.93308e-05
*RES
1 *3067:X *3068:A 11.67 
*END

*D_NET *250 0.000224499
*CONN
*I *3070:A I *D sky130_fd_sc_hd__clkbuf_1
*I *3069:X O *D sky130_fd_sc_hd__mux2_1
*CAP
1 *3070:A 6.81163e-05
2 *3069:X 6.81163e-05
3 *3070:A *322:28 8.8266e-05
*RES
1 *3069:X *3070:A 4.61 
*END

*D_NET *251 0.000842536
*CONN
*I *3072:A I *D sky130_fd_sc_hd__clkbuf_1
*I *3071:X O *D sky130_fd_sc_hd__mux2_1
*CAP
1 *3072:A 0.000334981
2 *3071:X 0.000334981
3 *3072:A *3055:A0 0
4 *3072:A *3169:CLK 1.27904e-05
5 *3103:S *3072:A 0.000159784
*RES
1 *3071:X *3072:A 11.805 
*END

*D_NET *252 0.000320029
*CONN
*I *3074:A I *D sky130_fd_sc_hd__clkbuf_1
*I *3073:X O *D sky130_fd_sc_hd__mux2_1
*CAP
1 *3074:A 9.67489e-05
2 *3073:X 9.67489e-05
3 *3074:A *384:27 3.11592e-05
4 *3073:S *3074:A 9.5372e-05
*RES
1 *3073:X *3074:A 5.3 
*END

*D_NET *253 0.000521574
*CONN
*I *3076:A I *D sky130_fd_sc_hd__clkbuf_1
*I *3075:X O *D sky130_fd_sc_hd__mux2_1
*CAP
1 *3076:A 0.000241457
2 *3075:X 0.000241457
3 *3076:A *3059:A0 0
4 *3076:A *3107:A1 0
5 *3076:A *277:116 0
6 *3171:D *3076:A 3.86607e-05
7 *202:73 *3076:A 0
8 *206:96 *3076:A 0
*RES
1 *3075:X *3076:A 10.875 
*END

*D_NET *254 0.000298744
*CONN
*I *3078:A I *D sky130_fd_sc_hd__clkbuf_1
*I *3077:X O *D sky130_fd_sc_hd__mux2_1
*CAP
1 *3078:A 8.73945e-05
2 *3077:X 8.73945e-05
3 *198:6 *3078:A 0.000123955
*RES
1 *3077:X *3078:A 4.955 
*END

*D_NET *255 0.00109381
*CONN
*I *3080:A I *D sky130_fd_sc_hd__clkbuf_1
*I *3079:X O *D sky130_fd_sc_hd__mux2_1
*CAP
1 *3080:A 0.000368588
2 *3079:X 0.000368588
3 *3080:A *3170:CLK 2.76356e-05
4 *3080:A *3173:CLK 1.43729e-05
5 *3080:A *3181:CLK 0
6 *3080:A *280:93 6.6925e-05
7 *3080:A *348:104 0.000102791
8 *3073:S *3080:A 9.28013e-05
9 *3173:D *3080:A 5.21046e-05
*RES
1 *3079:X *3080:A 13.14 
*END

*D_NET *256 0.000176011
*CONN
*I *3082:A I *D sky130_fd_sc_hd__clkbuf_1
*I *3081:X O *D sky130_fd_sc_hd__mux2_1
*CAP
1 *3082:A 3.9582e-05
2 *3081:X 3.9582e-05
3 *3082:A *278:50 4.82863e-05
4 *3081:S *3082:A 1.85674e-05
5 *198:104 *3082:A 2.99935e-05
*RES
1 *3081:X *3082:A 4.265 
*END

*D_NET *257 0.000539744
*CONN
*I *3084:A I *D sky130_fd_sc_hd__clkbuf_1
*I *3083:X O *D sky130_fd_sc_hd__mux2_1
*CAP
1 *3084:A 0.000200643
2 *3083:X 0.000200643
3 *3084:A *3175:CLK 2.75229e-05
4 *3084:A *321:12 7.1624e-05
5 *3175:D *3084:A 3.93106e-05
*RES
1 *3083:X *3084:A 10.62 
*END

*D_NET *258 0.000833775
*CONN
*I *3086:A I *D sky130_fd_sc_hd__clkbuf_1
*I *3085:X O *D sky130_fd_sc_hd__mux2_1
*CAP
1 *3086:A 0.000343698
2 *3085:X 0.000343698
3 *2917:A *3086:A 7.23533e-05
4 *207:137 *3086:A 7.4027e-05
*RES
1 *3085:X *3086:A 12.84 
*END

*D_NET *259 0.000400119
*CONN
*I *3088:A I *D sky130_fd_sc_hd__clkbuf_1
*I *3087:X O *D sky130_fd_sc_hd__mux2_1
*CAP
1 *3088:A 9.03087e-05
2 *3087:X 9.03087e-05
3 *3088:A *304:10 0
4 *3088:A *312:10 7.4027e-05
5 *3088:A *346:41 0.000145475
*RES
1 *3087:X *3088:A 9.63 
*END

*D_NET *260 0.000869762
*CONN
*I *3090:A I *D sky130_fd_sc_hd__clkbuf_1
*I *3089:X O *D sky130_fd_sc_hd__mux2_1
*CAP
1 *3090:A 0.000354795
2 *3089:X 0.000354795
3 *3090:A *2922:B1 0
4 *3090:A *3106:A 8.65905e-05
5 *3090:A *3186:RESET_B 0
6 *3090:A *3233:A 0
7 *3090:A *320:8 0
8 *3090:A *389:18 7.35813e-05
*RES
1 *3089:X *3090:A 12.81 
*END

*D_NET *261 0.0021089
*CONN
*I *3092:A I *D sky130_fd_sc_hd__clkbuf_1
*I *3091:X O *D sky130_fd_sc_hd__mux2_1
*CAP
1 *3092:A 0.000936166
2 *3091:X 0.000936166
3 *3092:A *3187:CLK 5.34747e-05
4 *3092:A *314:8 5.43769e-05
5 *3179:D *3092:A 3.81908e-06
6 *3187:D *3092:A 0.000124895
*RES
1 *3091:X *3092:A 14.27 
*END

*D_NET *262 0.00035227
*CONN
*I *3094:A I *D sky130_fd_sc_hd__clkbuf_1
*I *3093:X O *D sky130_fd_sc_hd__mux2_1
*CAP
1 *3094:A 0.000152794
2 *3093:X 0.000152794
3 *3094:A *3211:A 4.66826e-05
*RES
1 *3093:X *3094:A 5.645 
*END

*D_NET *263 0.0010581
*CONN
*I *3096:A I *D sky130_fd_sc_hd__clkbuf_1
*I *3095:X O *D sky130_fd_sc_hd__mux2_1
*CAP
1 *3096:A 0.000215319
2 *3095:X 0.000215319
3 *3096:A *2898:B1 7.95992e-05
4 *3096:A *2918:B1 0
5 *3096:A *3232:A 0
6 *3096:A *319:22 0
7 *3096:A *319:33 0.000115146
8 *3096:A *348:104 0
9 *3057:S *3096:A 0.00021857
10 *3075:S *3096:A 0.000184893
11 *198:39 *3096:A 2.92496e-05
*RES
1 *3095:X *3096:A 13.05 
*END

*D_NET *264 0.000162406
*CONN
*I *3098:A I *D sky130_fd_sc_hd__clkbuf_1
*I *3097:X O *D sky130_fd_sc_hd__mux2_1
*CAP
1 *3098:A 5.11011e-05
2 *3097:X 5.11011e-05
3 *3087:S *3098:A 0
4 *202:106 *3098:A 6.02035e-05
*RES
1 *3097:X *3098:A 4.265 
*END

*D_NET *265 0.000591933
*CONN
*I *3100:A I *D sky130_fd_sc_hd__clkbuf_1
*I *3099:X O *D sky130_fd_sc_hd__mux2_1
*CAP
1 *3100:A 0.000240739
2 *3099:X 0.000240739
3 *3100:A *3183:CLK 9.50342e-06
4 *3100:A *423:29 7.34364e-05
5 *203:140 *3100:A 2.75145e-05
*RES
1 *3099:X *3100:A 10.665 
*END

*D_NET *266 0.000596322
*CONN
*I *3102:A I *D sky130_fd_sc_hd__clkbuf_1
*I *3101:X O *D sky130_fd_sc_hd__mux2_1
*CAP
1 *3102:A 0.000220239
2 *3101:X 0.000220239
3 *3102:A *322:28 1.61831e-05
4 *3102:A *325:20 0
5 *3037:S *3102:A 9.91257e-05
6 *3184:D *3102:A 4.05358e-05
7 *203:25 *3102:A 0
8 *207:137 *3102:A 0
*RES
1 *3101:X *3102:A 10.665 
*END

*D_NET *267 0.000784647
*CONN
*I *3104:A I *D sky130_fd_sc_hd__clkbuf_1
*I *3103:X O *D sky130_fd_sc_hd__mux2_1
*CAP
1 *3104:A 0.000220112
2 *3103:X 0.000220112
3 *3104:A *3177:CLK 3.09233e-05
4 *3104:A *3205:A 0
5 *3104:A *279:88 0.000106648
6 *3087:S *3104:A 0.000160635
7 *3103:S *3104:A 3.45588e-05
8 *3185:D *3104:A 1.16578e-05
*RES
1 *3103:X *3104:A 11.115 
*END

*D_NET *268 0.000562001
*CONN
*I *3106:A I *D sky130_fd_sc_hd__clkbuf_1
*I *3105:X O *D sky130_fd_sc_hd__mux2_1
*CAP
1 *3106:A 0.000188419
2 *3105:X 0.000188419
3 *3106:A *3186:RESET_B 2.49909e-05
4 *3106:A *3218:A 0
5 *3090:A *3106:A 8.65905e-05
6 *3178:D *3106:A 7.35813e-05
*RES
1 *3105:X *3106:A 6.785 
*END

*D_NET *269 0.000176582
*CONN
*I *3108:A I *D sky130_fd_sc_hd__clkbuf_1
*I *3107:X O *D sky130_fd_sc_hd__mux2_1
*CAP
1 *3108:A 8.8291e-05
2 *3107:X 8.8291e-05
*RES
1 *3107:X *3108:A 4.61 
*END

*D_NET *270 0.000816066
*CONN
*I *3110:A I *D sky130_fd_sc_hd__clkbuf_1
*I *3109:X O *D sky130_fd_sc_hd__mux2_1
*CAP
1 *3110:A 0.000291818
2 *3109:X 0.000291818
3 *3110:A *3109:A0 4.99619e-05
4 *3110:A *3213:A 9.70988e-05
5 *206:8 *3110:A 8.53691e-05
*RES
1 *3109:X *3110:A 7.82 
*END

*D_NET *271 0.000728338
*CONN
*I *3112:A I *D sky130_fd_sc_hd__clkbuf_1
*I *3111:X O *D sky130_fd_sc_hd__mux2_1
*CAP
1 *3112:A 0.000314338
2 *3111:X 0.000314338
3 *3112:A *3189:RESET_B 0
4 *3112:A *3227:A 0
5 *3189:D *3112:A 3.86607e-05
6 *202:73 *3112:A 6.10014e-05
7 *206:110 *3112:A 0
*RES
1 *3111:X *3112:A 12.36 
*END

*D_NET *272 0.00187582
*CONN
*I *3114:A I *D sky130_fd_sc_hd__clkbuf_1
*I *3113:X O *D sky130_fd_sc_hd__mux2_1
*CAP
1 *3114:A 0.000621972
2 *3113:X 0.000621972
3 *3114:A *2915:B1 7.23602e-05
4 *3114:A *3190:CLK 1.34594e-05
5 *3114:A *3228:A 7.23602e-05
6 *3114:A *278:28 0.000415945
7 *206:150 *3114:A 5.77491e-05
*RES
1 *3113:X *3114:A 16.29 
*END

*D_NET *273 0.0263093
*CONN
*I *3199:A I *D sky130_fd_sc_hd__clkbuf_16
*I *3198:A I *D sky130_fd_sc_hd__clkbuf_16
*I *3197:A I *D sky130_fd_sc_hd__clkbuf_16
*I *3196:A I *D sky130_fd_sc_hd__clkbuf_16
*I *3195:A I *D sky130_fd_sc_hd__clkbuf_16
*I *3194:A I *D sky130_fd_sc_hd__clkbuf_16
*I *3193:A I *D sky130_fd_sc_hd__clkbuf_16
*I *3192:A I *D sky130_fd_sc_hd__clkbuf_16
*I *3191:X O *D sky130_fd_sc_hd__clkbuf_16
*CAP
1 *3199:A 0.000308418
2 *3198:A 3.84823e-05
3 *3197:A 0.000597232
4 *3196:A 0.000136199
5 *3195:A 0
6 *3194:A 0.000106408
7 *3193:A 0
8 *3192:A 0.000112435
9 *3191:X 7.24629e-06
10 *273:114 0.00103248
11 *273:76 0.00264708
12 *273:66 0.00425665
13 *273:50 0.00111621
14 *273:26 0.00163018
15 *273:14 0.00603545
16 *273:10 0.00517257
17 *3196:A *2880:A1 6.67187e-05
18 *3196:A *425:28 0.000113022
19 *3197:A *279:10 1.48749e-05
20 *3199:A *2883:A2 3.64998e-06
21 *3199:A *2902:B1 0.000272359
22 *3199:A *426:59 5.59607e-05
23 *273:10 *2965:A1 1.92979e-05
24 *273:10 *332:33 1.00941e-05
25 *273:26 *362:24 0.000160698
26 *273:50 *2961:A1 8.81365e-05
27 *273:50 *2980:A1 0.000113124
28 *273:76 *2880:A1 2.85135e-05
29 *273:76 *425:28 8.65994e-05
30 *273:76 *425:73 0.000142931
31 *273:114 *2902:B1 3.97211e-05
32 *2881:B1 *273:76 0
33 *2883:B1 *3199:A 1.29826e-05
34 *2886:B *273:76 0.000263015
35 *2886:D *3199:A 0.000195918
36 *2886:D *273:114 4.1977e-05
37 *2906:B *273:76 0.000137364
38 *2917:B *273:26 0.000228812
39 *2926:A *3199:A 0.000124736
40 *2937:A *273:50 4.73312e-05
41 *2937:B *273:26 0.000183775
42 *3129:D *3197:A 2.38055e-05
43 *3191:A *273:14 4.05161e-05
44 *199:63 *3197:A 0.000463236
45 *206:40 *273:26 0.000133106
*RES
1 *3191:X *273:10 4.3325 
2 *273:10 *273:14 6.10247 
3 *273:14 *273:26 7.45503 
4 *273:26 *3192:A 3.085 
5 *273:26 *3193:A 1.6 
6 *273:14 *273:50 5.65303 
7 *273:50 *3194:A 3.085 
8 *273:50 *3195:A 1.6 
9 *273:10 *273:66 3.01433 
10 *273:66 *273:76 5.96503 
11 *273:76 *3196:A 6.195 
12 *273:76 *3197:A 12.645 
13 *273:66 *273:114 2.7985 
14 *273:114 *3198:A 4.05 
15 *273:114 *3199:A 10.335 
*END

*D_NET *274 0.0077388
*CONN
*I *3184:CLK I *D sky130_fd_sc_hd__dfrtp_1
*I *3152:CLK I *D sky130_fd_sc_hd__dfrtp_1
*I *3144:CLK I *D sky130_fd_sc_hd__dfrtp_1
*I *3148:CLK I *D sky130_fd_sc_hd__dfrtp_1
*I *3156:CLK I *D sky130_fd_sc_hd__dfrtp_1
*I *3188:CLK I *D sky130_fd_sc_hd__dfrtp_1
*I *3180:CLK I *D sky130_fd_sc_hd__dfrtp_1
*I *3192:X O *D sky130_fd_sc_hd__clkbuf_16
*CAP
1 *3184:CLK 0.000191175
2 *3152:CLK 8.29683e-05
3 *3144:CLK 0.000851358
4 *3148:CLK 0.000278595
5 *3156:CLK 0
6 *3188:CLK 0.000309216
7 *3180:CLK 0
8 *3192:X 0.000129731
9 *274:77 0.000418838
10 *274:54 0.00107866
11 *274:16 0.000772088
12 *274:12 0.000530929
13 *274:10 0.000565163
14 *274:8 0.000430849
15 *3144:CLK *322:10 0.00053707
16 *3184:CLK *340:22 0.000164686
17 *3188:CLK *3188:RESET_B 0
18 *3188:CLK *325:12 0.000183036
19 *274:10 *3029:A1 0
20 *274:10 *340:22 0
21 *274:12 *3029:A1 0
22 *274:16 *3029:A1 0
23 *274:16 *326:14 0
24 *274:77 *322:10 0.000125788
25 *3030:A *274:10 0.000177561
26 *3030:A *274:12 0.000131401
27 *3030:A *274:16 8.53113e-06
28 *3144:D *3144:CLK 1.87038e-05
29 *3152:D *3152:CLK 5.83121e-06
30 *3152:D *3184:CLK 0.00010748
31 *3156:D *274:16 3.89528e-05
32 *3180:D *3188:CLK 0.000161203
33 *203:14 *3184:CLK 0
34 *203:14 *274:10 0.000102545
35 *203:14 *274:54 8.91172e-05
36 *203:14 *274:77 0.000247325
*RES
1 *3192:X *274:8 5.43 
2 *274:8 *274:10 4.95 
3 *274:10 *274:12 1.635 
4 *274:12 *274:16 10.01 
5 *274:16 *3180:CLK 1.6 
6 *274:16 *3188:CLK 11.645 
7 *274:12 *3156:CLK 3.6 
8 *274:10 *3148:CLK 6.735 
9 *274:8 *274:54 1.8975 
10 *274:54 *3144:CLK 18.0375 
11 *274:54 *274:77 6.9875 
12 *274:77 *3152:CLK 2.74 
13 *274:77 *3184:CLK 9.665 
*END

*D_NET *275 0.0144516
*CONN
*I *3168:CLK I *D sky130_fd_sc_hd__dfrtp_1
*I *3128:CLK I *D sky130_fd_sc_hd__dfrtp_1
*I *3134:CLK I *D sky130_fd_sc_hd__dfrtp_1
*I *3150:CLK I *D sky130_fd_sc_hd__dfrtp_1
*I *3158:CLK I *D sky130_fd_sc_hd__dfrtp_1
*I *3164:CLK I *D sky130_fd_sc_hd__dfrtp_1
*I *3132:CLK I *D sky130_fd_sc_hd__dfrtp_1
*I *3140:CLK I *D sky130_fd_sc_hd__dfrtp_1
*I *3172:CLK I *D sky130_fd_sc_hd__dfrtp_1
*I *3136:CLK I *D sky130_fd_sc_hd__dfrtp_1
*I *3193:X O *D sky130_fd_sc_hd__clkbuf_16
*CAP
1 *3168:CLK 0.000166974
2 *3128:CLK 5.32883e-05
3 *3134:CLK 2.66948e-05
4 *3150:CLK 6.87041e-05
5 *3158:CLK 2.56208e-05
6 *3164:CLK 4.52001e-05
7 *3132:CLK 8.55851e-05
8 *3140:CLK 7.75661e-05
9 *3172:CLK 0.000164598
10 *3136:CLK 0
11 *3193:X 0.000267569
12 *275:70 0.00128355
13 *275:47 0.00200556
14 *275:39 0.00102697
15 *275:37 0.000802085
16 *275:35 0.0010818
17 *275:31 0.000594665
18 *275:27 0.00130704
19 *275:14 0.00137125
20 *275:10 0.000622182
21 *3128:CLK *344:37 0.000180354
22 *3134:CLK *3128:RESET_B 8.74126e-05
23 *3164:CLK *3164:RESET_B 8.40269e-05
24 *3168:CLK *424:81 7.35729e-05
25 *3172:CLK *2891:B1 0
26 *275:27 *3136:RESET_B 7.95914e-05
27 *275:27 *344:37 0.000111293
28 *275:27 *400:12 1.34687e-05
29 *275:31 *3128:RESET_B 0.000173868
30 *275:35 *344:37 0
31 *275:37 *344:12 0
32 *275:37 *344:37 0
33 *275:47 *2891:B1 7.2283e-05
34 *275:47 *3172:RESET_B 0.000187738
35 *275:47 *3215:A 4.85494e-05
36 *275:70 *2891:B1 0
37 *275:70 *3140:RESET_B 8.07672e-05
38 *275:70 *390:26 2.66935e-05
39 *275:70 *404:12 3.09164e-05
40 *2877:B *3128:CLK 0.000170911
41 *2877:B *275:27 0.00011272
42 *2897:D *3134:CLK 0.000160342
43 *2897:D *275:31 0.000305697
44 *2937:D *275:35 0
45 *2937:D *275:37 0
46 *3062:A *275:39 0.000160658
47 *3062:A *275:47 9.14049e-05
48 *3065:S *275:27 0.000342602
49 *3136:D *275:27 4.77807e-05
50 *3140:D *3132:CLK 7.23602e-05
51 *3140:D *275:70 4.82919e-05
52 *3150:D *275:37 9.54399e-05
53 *3158:D *275:37 0
54 *3164:D *275:47 9.30787e-05
55 *3168:D *3168:CLK 5.68409e-05
56 *3172:D *3172:CLK 5.38409e-05
57 *3172:D *275:70 2.04583e-05
58 *194:20 *3172:CLK 5.06989e-05
59 *194:20 *275:47 7.93185e-05
60 *198:29 *3158:CLK 1.83847e-05
61 *202:27 *3168:CLK 0
62 *203:60 *3150:CLK 9.66021e-05
63 *206:150 *3164:CLK 4.66826e-05
*RES
1 *3193:X *275:10 7.725 
2 *275:10 *275:14 4.865 
3 *275:14 *3136:CLK 1.6 
4 *275:14 *275:27 16.865 
5 *275:27 *275:31 4.865 
6 *275:31 *275:35 10.01 
7 *275:35 *275:37 8.52 
8 *275:37 *275:39 4.44 
9 *275:39 *275:47 13.855 
10 *275:47 *3172:CLK 6.27 
11 *275:47 *275:70 16.925 
12 *275:70 *3140:CLK 2.665 
13 *275:70 *3132:CLK 7.085 
14 *275:39 *3164:CLK 4.755 
15 *275:37 *3158:CLK 4.05 
16 *275:35 *3150:CLK 5.085 
17 *275:31 *3134:CLK 3.085 
18 *275:27 *3128:CLK 5.745 
19 *275:10 *3168:CLK 6.885 
*END

*D_NET *276 0.012589
*CONN
*I *3147:CLK I *D sky130_fd_sc_hd__dfrtp_1
*I *3126:CLK I *D sky130_fd_sc_hd__dfrtp_1
*I *3187:CLK I *D sky130_fd_sc_hd__dfrtp_1
*I *3179:CLK I *D sky130_fd_sc_hd__dfrtp_1
*I *3155:CLK I *D sky130_fd_sc_hd__dfrtp_1
*I *3139:CLK I *D sky130_fd_sc_hd__dfrtp_1
*I *3176:CLK I *D sky130_fd_sc_hd__dfrtp_1
*I *3125:CLK I *D sky130_fd_sc_hd__dfrtp_1
*I *3120:CLK I *D sky130_fd_sc_hd__dfrtp_4
*I *3194:X O *D sky130_fd_sc_hd__clkbuf_16
*CAP
1 *3147:CLK 0.000668943
2 *3126:CLK 1.87715e-05
3 *3187:CLK 0.000201013
4 *3179:CLK 7.18751e-05
5 *3155:CLK 0.000224429
6 *3139:CLK 0.000459992
7 *3176:CLK 0.000322072
8 *3125:CLK 0.000343218
9 *3120:CLK 7.45072e-05
10 *3194:X 8.44579e-05
11 *276:99 0.000634644
12 *276:86 0.000719644
13 *276:78 0.000266721
14 *276:70 0.00112805
15 *276:27 0.000950524
16 *276:12 0.000427835
17 *276:10 0.000631981
18 *276:8 0.000532965
19 *3120:CLK *3176:RESET_B 2.92496e-05
20 *3120:CLK *3271:A 0.000312964
21 *3120:CLK *343:73 0.000264677
22 *3120:CLK *343:75 4.66108e-05
23 *3120:CLK *343:85 2.92496e-05
24 *3125:CLK *3271:A 4.9016e-05
25 *3126:CLK *2909:A1 8.40269e-05
26 *3126:CLK *411:23 3.77639e-05
27 *3139:CLK *2961:A0 0.00022874
28 *3139:CLK *2961:A1 4.94457e-05
29 *3139:CLK *2961:S 4.66108e-05
30 *3139:CLK *2980:A1 5.49035e-05
31 *3139:CLK *318:55 0.000137286
32 *3139:CLK *428:16 0.000311294
33 *3147:CLK *2909:A1 0
34 *3147:CLK *3147:RESET_B 7.00685e-05
35 *3155:CLK *338:28 0.000285127
36 *3176:CLK *340:8 0
37 *3176:CLK *362:16 1.7386e-05
38 *3179:CLK *2909:B1 2.75229e-05
39 *276:10 *343:85 0.000224071
40 *276:12 *3220:A 0
41 *276:12 *343:85 0.000133068
42 *276:27 *3125:RESET_B 7.69078e-05
43 *276:27 *3271:A 2.41784e-05
44 *276:27 *343:75 4.66108e-05
45 *276:70 *2909:B1 0
46 *276:70 *3155:RESET_B 8.53113e-06
47 *276:70 *325:31 0
48 *276:70 *343:85 0.000649255
49 *276:78 *2909:A1 8.08498e-05
50 *276:78 *411:6 0.000239813
51 *276:78 *411:23 3.4687e-05
52 *276:86 *2909:B1 0.000153028
53 *276:86 *3155:RESET_B 0
54 *276:99 *2909:B1 0.000366786
55 *2910:B1 *276:70 0
56 *2917:A *276:10 0
57 *2917:A *276:12 0
58 *2962:A *3139:CLK 0.000231503
59 *3027:S *3120:CLK 1.26548e-05
60 *3044:A *3155:CLK 0.000234777
61 *3044:A *276:99 0
62 *3092:A *3187:CLK 5.34747e-05
63 *3120:D *3139:CLK 0.000111901
64 *3125:D *3176:CLK 0
65 *3155:D *3155:CLK 3.32922e-05
66 *3179:D *3187:CLK 3.00381e-05
67 *3179:D *276:99 0
*RES
1 *3194:X *276:8 4.395 
2 *276:8 *276:10 2.655 
3 *276:10 *276:12 1.635 
4 *276:12 *3120:CLK 7.08 
5 *276:12 *276:27 5.21 
6 *276:27 *3125:CLK 5.77 
7 *276:27 *3176:CLK 10.955 
8 *276:10 *3139:CLK 14.865 
9 *276:8 *276:70 9.755 
10 *276:70 *276:78 3.345 
11 *276:78 *276:86 4.7 
12 *276:86 *3155:CLK 10.275 
13 *276:86 *276:99 8.01 
14 *276:99 *3179:CLK 4.74 
15 *276:99 *3187:CLK 7.23 
16 *276:78 *3126:CLK 2.395 
17 *276:70 *3147:CLK 9.49 
*END

*D_NET *277 0.0149783
*CONN
*I *3165:CLK I *D sky130_fd_sc_hd__dfrtp_1
*I *3189:CLK I *D sky130_fd_sc_hd__dfrtp_1
*I *3171:CLK I *D sky130_fd_sc_hd__dfrtp_1
*I *3163:CLK I *D sky130_fd_sc_hd__dfrtp_1
*I *3131:CLK I *D sky130_fd_sc_hd__dfrtp_1
*I *3157:CLK I *D sky130_fd_sc_hd__dfrtp_1
*I *3133:CLK I *D sky130_fd_sc_hd__dfrtp_1
*I *3121:CLK I *D sky130_fd_sc_hd__dfrtp_4
*I *3124:CLK I *D sky130_fd_sc_hd__dfrtp_1
*I *3123:CLK I *D sky130_fd_sc_hd__dfrtp_1
*I *3160:CLK I *D sky130_fd_sc_hd__dfrtp_1
*I *3195:X O *D sky130_fd_sc_hd__clkbuf_16
*CAP
1 *3165:CLK 0.000169921
2 *3189:CLK 0
3 *3171:CLK 0
4 *3163:CLK 5.43879e-05
5 *3131:CLK 0.000197517
6 *3157:CLK 0
7 *3133:CLK 0.000533624
8 *3121:CLK 0
9 *3124:CLK 0.000284989
10 *3123:CLK 1.85755e-05
11 *3160:CLK 0.000559331
12 *3195:X 0
13 *277:123 0.000571899
14 *277:116 0.00058351
15 *277:103 0.00049238
16 *277:90 0.00109967
17 *277:79 0.000943717
18 *277:66 0.00111218
19 *277:40 0.000687069
20 *277:30 0.000749399
21 *277:17 0.000710757
22 *277:4 0.00118472
23 *3131:CLK *3131:RESET_B 0
24 *3160:CLK *3011:A1 0.000337517
25 *3160:CLK *343:57 7.23533e-05
26 *3160:CLK *428:16 0
27 *3163:CLK *3091:A0 5.83121e-06
28 *3165:CLK *3171:RESET_B 0.000178794
29 *3165:CLK *389:32 0.00018766
30 *277:17 *2890:A1 4.82863e-05
31 *277:17 *2890:A2 2.75145e-05
32 *277:66 *2889:B1 0.000199338
33 *277:79 *2869:B1 2.97802e-05
34 *277:79 *2889:B1 0.000294309
35 *277:90 *2869:A1 2.937e-05
36 *277:90 *2869:B1 4.24744e-05
37 *277:90 *342:69 0
38 *277:90 *427:70 2.04416e-05
39 *277:90 *427:72 0.000109976
40 *277:103 *3131:RESET_B 0
41 *277:103 *3163:RESET_B 0
42 *277:116 *3091:A0 0.000139245
43 *277:116 *3107:A1 3.47837e-05
44 *277:123 *3171:RESET_B 0.000205117
45 *2870:B1 *277:90 8.52845e-05
46 *2877:A *3124:CLK 0.000287898
47 *2877:A *277:40 0
48 *2897:A *277:17 9.85258e-05
49 *2897:A *277:30 2.14495e-05
50 *2897:A *277:40 0.000171986
51 *2976:A *3124:CLK 0.000159746
52 *2996:A *3131:CLK 0
53 *2996:A *277:90 7.35729e-05
54 *3011:S *3124:CLK 0.000112084
55 *3011:S *277:40 8.65961e-05
56 *3012:A *277:17 4.66108e-05
57 *3047:S *3131:CLK 8.88715e-05
58 *3054:A *3160:CLK 0
59 *3076:A *277:116 0
60 *3121:D *277:40 7.4027e-05
61 *3123:D *277:40 0.000117825
62 *3124:D *3124:CLK 1.34503e-05
63 *3131:D *3131:CLK 0.000121781
64 *3133:D *3133:CLK 2.01737e-05
65 *3139:D *3160:CLK 0.000116151
66 *3139:D *277:17 2.31329e-05
67 *3160:D *3160:CLK 0
68 *3163:D *277:103 0
69 *3171:D *277:123 5.63214e-05
70 *3189:D *3165:CLK 0.000256575
71 *153:24 *3124:CLK 8.23457e-05
72 *195:115 *3124:CLK 9.68865e-05
73 *202:44 *3131:CLK 4.78859e-05
74 *202:44 *3160:CLK 0
75 *202:44 *277:103 0.000205961
76 *202:44 *277:116 1.61461e-05
77 *202:73 *3165:CLK 0.000238919
78 *202:73 *277:116 7.03934e-05
79 *206:61 *3160:CLK 0
80 *206:96 *277:123 0.000271219
*RES
1 *3195:X *277:4 1.6 
2 *277:4 *3160:CLK 16.16 
3 *277:4 *277:17 9.42 
4 *277:17 *3123:CLK 1.96 
5 *277:17 *277:30 3.155 
6 *277:30 *277:40 10.085 
7 *277:40 *3124:CLK 12.62 
8 *277:40 *3121:CLK 1.6 
9 *277:30 *277:66 5.715 
10 *277:66 *3133:CLK 11.295 
11 *277:66 *277:79 8.225 
12 *277:79 *3157:CLK 1.6 
13 *277:79 *277:90 10.31 
14 *277:90 *3131:CLK 7.74 
15 *277:90 *277:103 5.715 
16 *277:103 *3163:CLK 4.395 
17 *277:103 *277:116 6.185 
18 *277:116 *3171:CLK 1.6 
19 *277:116 *277:123 8.73 
20 *277:123 *3189:CLK 1.6 
21 *277:123 *3165:CLK 8.605 
*END

*D_NET *278 0.0127967
*CONN
*I *3122:CLK I *D sky130_fd_sc_hd__dfrtp_4
*I *3166:CLK I *D sky130_fd_sc_hd__dfrtp_1
*I *3137:CLK I *D sky130_fd_sc_hd__dfrtp_1
*I *3142:CLK I *D sky130_fd_sc_hd__dfrtp_1
*I *3174:CLK I *D sky130_fd_sc_hd__dfrtp_1
*I *3169:CLK I *D sky130_fd_sc_hd__dfrtp_1
*I *3161:CLK I *D sky130_fd_sc_hd__dfrtp_1
*I *3182:CLK I *D sky130_fd_sc_hd__dfrtp_1
*I *3190:CLK I *D sky130_fd_sc_hd__dfrtp_1
*I *3196:X O *D sky130_fd_sc_hd__clkbuf_16
*CAP
1 *3122:CLK 0.000266643
2 *3166:CLK 0
3 *3137:CLK 0.000798792
4 *3142:CLK 3.37454e-05
5 *3174:CLK 2.946e-05
6 *3169:CLK 9.89688e-05
7 *3161:CLK 0.000148491
8 *3182:CLK 0
9 *3190:CLK 0.00013114
10 *3196:X 0.000273913
11 *278:115 0.000858119
12 *278:92 0.00151579
13 *278:50 0.000616227
14 *278:28 0.000642432
15 *278:20 0.00100224
16 *278:16 0.00037997
17 *278:10 0.000360599
18 *278:8 0.000497957
19 *3122:CLK *2875:B1 0.000108075
20 *3122:CLK *327:10 0.000173973
21 *3122:CLK *336:10 0
22 *3122:CLK *430:14 0.000163019
23 *3137:CLK *2900:A1 5.08762e-05
24 *3137:CLK *2900:B1 2.24253e-05
25 *3137:CLK *430:102 0.000194921
26 *3161:CLK *345:106 0
27 *3190:CLK *3164:RESET_B 0
28 *3190:CLK *327:10 0
29 *278:8 *328:20 0.000104892
30 *278:10 *336:10 0
31 *278:16 *2915:B1 0.000339893
32 *278:16 *336:10 0
33 *278:20 *2915:B1 0
34 *278:20 *328:14 0
35 *278:28 *2915:B1 0
36 *278:28 *3097:A0 4.83324e-05
37 *278:28 *3214:A 0.000198939
38 *278:28 *328:14 0
39 *278:50 *3081:A1 0.000198429
40 *278:115 *2875:B1 6.93891e-05
41 *278:115 *430:102 0.000412743
42 *2896:B1 *278:10 9.86611e-05
43 *2896:B1 *278:16 7.89689e-05
44 *2896:B1 *278:92 9.7255e-05
45 *2901:B1 *3137:CLK 8.35157e-05
46 *3018:A *278:8 0.00022786
47 *3055:S *3190:CLK 0
48 *3056:A *3161:CLK 0.000123313
49 *3072:A *3169:CLK 1.27904e-05
50 *3081:S *278:50 0.000102587
51 *3082:A *278:50 4.82863e-05
52 *3087:S *3161:CLK 0.000118401
53 *3103:S *3161:CLK 0.000109956
54 *3103:S *3169:CLK 5.06989e-05
55 *3114:A *3190:CLK 1.34594e-05
56 *3114:A *278:28 0.000415945
57 *3142:D *278:8 0.00015639
58 *3161:D *3161:CLK 2.10214e-05
59 *3169:D *3169:CLK 5.20778e-05
60 *3174:D *278:20 0
61 *3182:D *278:28 6.97034e-05
62 *3190:D *3190:CLK 3.86529e-05
63 *198:33 *278:16 8.48454e-05
64 *198:33 *278:20 0.000163019
65 *198:33 *278:92 5.42475e-05
66 *198:33 *278:115 0.000171678
67 *198:104 *278:50 0.000134301
68 *203:71 *278:10 4.43871e-06
69 *203:71 *278:92 0.000178193
70 *203:71 *278:115 3.33871e-05
71 *206:150 *3190:CLK 4.82919e-05
72 *206:150 *278:28 0.000264404
*RES
1 *3196:X *278:8 8.88 
2 *278:8 *278:10 2.145 
3 *278:10 *278:16 7.67 
4 *278:16 *278:20 4.655 
5 *278:20 *278:28 14.42 
6 *278:28 *3190:CLK 7.94 
7 *278:28 *3182:CLK 1.6 
8 *278:20 *278:50 9.005 
9 *278:50 *3161:CLK 9.425 
10 *278:50 *3169:CLK 3.445 
11 *278:16 *3174:CLK 2.05 
12 *278:10 *3142:CLK 4.05 
13 *278:8 *278:92 3.93 
14 *278:92 *3137:CLK 16.17 
15 *278:92 *278:115 12.485 
16 *278:115 *3166:CLK 1.6 
17 *278:115 *3122:CLK 11.915 
*END

*D_NET *279 0.0129235
*CONN
*I *3153:CLK I *D sky130_fd_sc_hd__dfrtp_1
*I *3145:CLK I *D sky130_fd_sc_hd__dfrtp_1
*I *3185:CLK I *D sky130_fd_sc_hd__dfrtp_1
*I *3177:CLK I *D sky130_fd_sc_hd__dfrtp_1
*I *3129:CLK I *D sky130_fd_sc_hd__dfrtp_1
*I *3117:CLK I *D sky130_fd_sc_hd__dfrtp_4
*I *3135:CLK I *D sky130_fd_sc_hd__dfrtp_1
*I *3167:CLK I *D sky130_fd_sc_hd__dfrtp_1
*I *3138:CLK I *D sky130_fd_sc_hd__dfrtp_1
*I *3116:CLK I *D sky130_fd_sc_hd__dfrtp_4
*I *3197:X O *D sky130_fd_sc_hd__clkbuf_16
*CAP
1 *3153:CLK 0.000190526
2 *3145:CLK 0.000251724
3 *3185:CLK 0
4 *3177:CLK 0.000768555
5 *3129:CLK 0
6 *3117:CLK 0
7 *3135:CLK 0.000148963
8 *3167:CLK 3.55506e-05
9 *3138:CLK 0.000247838
10 *3116:CLK 2.11983e-05
11 *3197:X 0
12 *279:112 0.000577363
13 *279:88 0.00140571
14 *279:52 0.00132234
15 *279:44 0.00120858
16 *279:22 0.00062425
17 *279:16 0.000913033
18 *279:10 0.000739379
19 *279:6 0.00114205
20 *279:4 0.000387702
21 *3116:CLK *3116:RESET_B 4.82919e-05
22 *3138:CLK *2955:A0 0.000352156
23 *3138:CLK *320:8 0
24 *3138:CLK *324:10 0
25 *3145:CLK *2920:B1 8.44945e-05
26 *3145:CLK *2940:B1 0
27 *3145:CLK *425:12 2.07338e-05
28 *3145:CLK *425:20 0.000176381
29 *3153:CLK *2920:A1 8.35157e-05
30 *3153:CLK *2920:B1 0.00015531
31 *3153:CLK *409:12 6.33849e-05
32 *3153:CLK *417:14 8.28018e-06
33 *3177:CLK *3177:RESET_B 0.00015737
34 *3177:CLK *304:10 0.000131658
35 *279:16 *320:8 0
36 *279:16 *346:77 0.000390631
37 *279:22 *320:8 0
38 *279:22 *324:10 0
39 *279:44 *346:77 2.75229e-05
40 *279:52 *320:8 0
41 *279:52 *424:14 0.000198945
42 *279:88 *3103:A0 0
43 *279:88 *3205:A 0
44 *279:112 *2920:B1 4.71087e-05
45 *2921:B1 *3153:CLK 8.64599e-05
46 *2941:B1 *3145:CLK 1.10359e-05
47 *2941:B1 *279:112 1.42598e-05
48 *3024:A *3145:CLK 0.000108705
49 *3068:A *279:52 5.05437e-05
50 *3103:S *279:88 0
51 *3104:A *3177:CLK 3.09233e-05
52 *3104:A *279:88 0.000106648
53 *3116:D *279:52 0
54 *3117:D *279:52 9.57888e-05
55 *3129:D *279:10 3.12916e-05
56 *3129:D *279:16 7.1624e-05
57 *3138:D *3138:CLK 8.8266e-05
58 *3145:D *3145:CLK 3.95724e-05
59 *3153:D *3153:CLK 8.82496e-05
60 *3167:D *279:52 1.03323e-05
61 *3177:D *3177:CLK 4.82863e-05
62 *3197:A *279:10 1.48749e-05
63 *199:63 *279:16 5.74271e-05
64 *199:80 *279:16 0
65 *207:66 *3135:CLK 3.86607e-05
*RES
1 *3197:X *279:4 1.6 
2 *279:4 *279:6 2.865 
3 *279:6 *279:10 3.135 
4 *279:10 *279:16 14.305 
5 *279:16 *279:22 7.355 
6 *279:22 *3116:CLK 4.05 
7 *279:22 *3138:CLK 8.7 
8 *279:16 *279:44 1.14 
9 *279:44 *279:52 18.145 
10 *279:52 *3167:CLK 2.215 
11 *279:52 *3135:CLK 7.88 
12 *279:44 *3117:CLK 1.6 
13 *279:10 *3129:CLK 1.6 
14 *279:6 *279:88 12.815 
15 *279:88 *3177:CLK 13.545 
16 *279:88 *3185:CLK 3.6 
17 *279:4 *279:112 2.19 
18 *279:112 *3145:CLK 11.51 
19 *279:112 *3153:CLK 5.86 
*END

*D_NET *280 0.0147524
*CONN
*I *3130:CLK I *D sky130_fd_sc_hd__dfrtp_1
*I *3181:CLK I *D sky130_fd_sc_hd__dfrtp_1
*I *3170:CLK I *D sky130_fd_sc_hd__dfrtp_1
*I *3173:CLK I *D sky130_fd_sc_hd__dfrtp_1
*I *3162:CLK I *D sky130_fd_sc_hd__dfrtp_1
*I *3149:CLK I *D sky130_fd_sc_hd__dfrtp_1
*I *3119:CLK I *D sky130_fd_sc_hd__dfrtp_4
*I *3141:CLK I *D sky130_fd_sc_hd__dfrtp_1
*I *3118:CLK I *D sky130_fd_sc_hd__dfrtp_4
*I *3198:X O *D sky130_fd_sc_hd__clkbuf_16
*CAP
1 *3130:CLK 0
2 *3181:CLK 0.00100056
3 *3170:CLK 3.03937e-05
4 *3173:CLK 5.92115e-05
5 *3162:CLK 2.56208e-05
6 *3149:CLK 0.00084005
7 *3119:CLK 2.2206e-05
8 *3141:CLK 0.000584368
9 *3118:CLK 0.000200025
10 *3198:X 4.78064e-05
11 *280:93 0.000162455
12 *280:89 0.00119483
13 *280:78 0.000531968
14 *280:59 0.00132198
15 *280:48 0.00031271
16 *280:44 0.000567672
17 *280:10 0.000852958
18 *280:8 0.000490547
19 *3118:CLK *348:48 0.000345562
20 *3141:CLK *2898:A1 0.000122331
21 *3141:CLK *2898:A2 0.000198945
22 *3141:CLK *3141:RESET_B 7.94826e-05
23 *3149:CLK *2918:A1 4.66826e-05
24 *3149:CLK *2918:A2 4.82919e-05
25 *3149:CLK *2918:B1 8.8266e-05
26 *3149:CLK *2949:D 0
27 *3149:CLK *413:6 4.66108e-05
28 *3170:CLK *3079:A0 3.66286e-05
29 *3173:CLK *3079:A0 0.000139245
30 *3181:CLK *2898:B1 0
31 *3181:CLK *3173:RESET_B 4.2463e-05
32 *3181:CLK *3181:RESET_B 0.000231414
33 *3181:CLK *3237:A 6.0011e-05
34 *3181:CLK *300:6 7.64643e-05
35 *3181:CLK *319:22 0.000226555
36 *280:10 *348:48 0.000288251
37 *280:44 *332:97 0
38 *280:44 *348:48 0.000447217
39 *280:48 *2898:B1 0.000124728
40 *280:59 *2898:B1 5.93674e-05
41 *280:78 *2898:B1 0.000305133
42 *280:89 *2898:B1 1.52491e-05
43 *280:93 *3079:A0 0.000278117
44 *2886:A *280:44 0.000157624
45 *2887:C *3118:CLK 5.16418e-05
46 *2887:C *3141:CLK 0.000702417
47 *2887:C *280:10 0.000296081
48 *2887:C *280:44 0.000187766
49 *2888:A *3141:CLK 0.000142661
50 *2906:A *3118:CLK 6.14974e-05
51 *2919:B1 *3149:CLK 0.000278111
52 *2926:A *3119:CLK 4.82919e-05
53 *2947:C *3149:CLK 0.000120967
54 *2958:A *3118:CLK 0
55 *3057:S *3162:CLK 1.83847e-05
56 *3057:S *280:89 2.46089e-05
57 *3073:S *3170:CLK 2.05056e-05
58 *3073:S *3173:CLK 1.17666e-05
59 *3075:S *3181:CLK 0.000243436
60 *3080:A *3170:CLK 2.76356e-05
61 *3080:A *3173:CLK 1.43729e-05
62 *3080:A *3181:CLK 0
63 *3080:A *280:93 6.6925e-05
64 *3119:D *280:48 0
65 *3141:D *3141:CLK 4.83113e-05
66 *3149:D *3149:CLK 0.000255767
67 *3162:D *280:78 0
68 *3173:D *3181:CLK 0
69 *182:12 *3149:CLK 0.000421222
*RES
1 *3198:X *280:8 4.05 
2 *280:8 *280:10 3.42 
3 *280:10 *3118:CLK 8.34 
4 *280:10 *3141:CLK 17.295 
5 *280:8 *280:44 10.16 
6 *280:44 *280:48 5.93 
7 *280:48 *3119:CLK 4.05 
8 *280:48 *280:59 1.89 
9 *280:59 *3149:CLK 18.69 
10 *280:59 *280:78 8.52 
11 *280:78 *3162:CLK 4.05 
12 *280:78 *280:89 2.145 
13 *280:89 *280:93 4.52 
14 *280:93 *3173:CLK 8 
15 *280:93 *3170:CLK 2.395 
16 *280:89 *3181:CLK 18.27 
17 *280:44 *3130:CLK 1.6 
*END

*D_NET *281 0.0132283
*CONN
*I *3143:CLK I *D sky130_fd_sc_hd__dfrtp_1
*I *3175:CLK I *D sky130_fd_sc_hd__dfrtp_1
*I *3127:CLK I *D sky130_fd_sc_hd__dfrtp_1
*I *3159:CLK I *D sky130_fd_sc_hd__dfrtp_1
*I *3186:CLK I *D sky130_fd_sc_hd__dfrtp_1
*I *3178:CLK I *D sky130_fd_sc_hd__dfrtp_1
*I *3115:CLK I *D sky130_fd_sc_hd__dfrtp_4
*I *3183:CLK I *D sky130_fd_sc_hd__dfrtp_1
*I *3151:CLK I *D sky130_fd_sc_hd__dfrtp_1
*I *3154:CLK I *D sky130_fd_sc_hd__dfrtp_1
*I *3146:CLK I *D sky130_fd_sc_hd__dfrtp_1
*I *3199:X O *D sky130_fd_sc_hd__clkbuf_16
*CAP
1 *3143:CLK 0
2 *3175:CLK 0.000111212
3 *3127:CLK 1.36534e-05
4 *3159:CLK 0.000255604
5 *3186:CLK 0.00043609
6 *3178:CLK 0.000224191
7 *3115:CLK 4.52026e-05
8 *3183:CLK 0.000411995
9 *3151:CLK 0
10 *3154:CLK 0
11 *3146:CLK 3.20639e-05
12 *3199:X 0
13 *281:143 0.000860429
14 *281:115 0.000343363
15 *281:113 0.00103352
16 *281:72 0.000448691
17 *281:44 0.000738139
18 *281:38 0.00124661
19 *281:32 0.0013173
20 *281:23 0.000324789
21 *281:10 0.00102819
22 *281:4 0.00102158
23 *3159:CLK *2953:A1 0
24 *3159:CLK *320:8 0
25 *3175:CLK *321:12 0
26 *3175:CLK *423:29 0.00018471
27 *3183:CLK *347:80 0
28 *3183:CLK *423:29 0.000116853
29 *3186:CLK *2902:B1 0
30 *3186:CLK *3057:A1 0
31 *3186:CLK *3236:A 0
32 *3186:CLK *320:8 0
33 *3186:CLK *384:40 0.000134429
34 *281:10 *2902:B1 0
35 *281:10 *320:8 0
36 *281:23 *2902:B1 0
37 *281:23 *320:8 0
38 *281:32 *2902:B1 0
39 *281:32 *320:8 0
40 *281:38 *347:95 0.000580311
41 *281:44 *2951:S 8.47455e-05
42 *281:72 *2951:S 5.21545e-05
43 *281:113 *320:8 0
44 *281:115 *320:8 0
45 *281:143 *2884:B1 0.000157959
46 *281:143 *2924:A1 4.82919e-05
47 *281:143 *2925:A1 4.66108e-05
48 *281:143 *2925:A2 3.70572e-05
49 *281:143 *347:18 1.6418e-05
50 *2885:B1 *281:143 0.000155497
51 *2925:B1 *281:143 8.65905e-05
52 *2926:A *281:10 0.000159423
53 *2926:A *281:113 2.36616e-05
54 *2926:C *281:113 8.33066e-06
55 *2946:B *281:113 0
56 *2946:D *3183:CLK 0
57 *2952:A *281:72 0.00011852
58 *2988:A *3127:CLK 4.66108e-05
59 *3036:A *3183:CLK 0
60 *3042:A *3146:CLK 0.000100323
61 *3052:A *3159:CLK 4.18603e-06
62 *3084:A *3175:CLK 2.75229e-05
63 *3100:A *3183:CLK 9.50342e-06
64 *3115:D *3115:CLK 3.00381e-05
65 *3127:D *3127:CLK 4.66108e-05
66 *3146:D *281:10 0.000158297
67 *3146:D *281:23 8.53113e-06
68 *3151:D *3183:CLK 0
69 *3154:D *281:23 0.000123755
70 *3175:D *3175:CLK 2.75229e-05
71 *3178:D *3178:CLK 7.81914e-05
72 *3183:D *3183:CLK 4.82919e-05
73 *3186:D *3186:CLK 4.25452e-05
74 *163:20 *3159:CLK 0.000219351
75 *163:20 *281:113 0.000164686
76 *163:20 *281:115 0.000137578
77 *182:12 *3146:CLK 5.05437e-05
*RES
1 *3199:X *281:4 1.6 
2 *281:4 *281:10 14.255 
3 *281:10 *3146:CLK 4.755 
4 *281:10 *281:23 3.93 
5 *281:23 *3154:CLK 3.6 
6 *281:23 *281:32 2.4 
7 *281:32 *281:38 15.49 
8 *281:38 *281:44 7.61 
9 *281:44 *3151:CLK 1.6 
10 *281:44 *3183:CLK 12.545 
11 *281:38 *281:72 3.675 
12 *281:72 *3115:CLK 4.395 
13 *281:72 *3178:CLK 6.99 
14 *281:32 *3186:CLK 11.325 
15 *281:4 *281:113 5.96 
16 *281:113 *281:115 1.635 
17 *281:115 *3159:CLK 8.34 
18 *281:115 *3127:CLK 4.05 
19 *281:113 *281:143 13.85 
20 *281:143 *3175:CLK 8.195 
21 *281:143 *3143:CLK 1.6 
*END

*D_NET *282 0.00148894
*CONN
*I *2887:A I *D sky130_fd_sc_hd__and3_1
*I *3212:A I *D sky130_fd_sc_hd__dlygate4sd3_1
*I *3123:Q O *D sky130_fd_sc_hd__dfrtp_1
*CAP
1 *2887:A 0.000470293
2 *3212:A 0
3 *3123:Q 0.000204898
4 *282:6 0.000675191
5 *2887:A *3189:RESET_B 0
6 *2887:A *3202:A 0
7 *2887:A *343:10 9.26907e-06
8 *2887:A *343:37 0
9 *3016:A *2887:A 0.000129283
*RES
1 *3123:Q *282:6 4.465 
2 *282:6 *3212:A 1.6 
3 *282:6 *2887:A 13.91 
*END

*D_NET *283 0.00146313
*CONN
*I *3241:A I *D sky130_fd_sc_hd__dlygate4sd3_1
*I *2907:A I *D sky130_fd_sc_hd__and3_1
*I *3124:Q O *D sky130_fd_sc_hd__dfrtp_1
*CAP
1 *3241:A 0.000153852
2 *2907:A 0.000142851
3 *3124:Q 6.87338e-05
4 *283:8 0.000365437
5 *2907:A *2949:A 2.73058e-05
6 *2907:A *327:10 0
7 *3241:A *2949:A 0.000144635
8 *3241:A *327:10 0
9 *283:8 *2949:A 4.66108e-05
10 *283:8 *2949:B 6.64509e-05
11 *283:8 *429:18 0.000313846
12 *3016:A *3241:A 9.3062e-06
13 *3191:A *2907:A 0
14 *153:24 *2907:A 0
15 *153:24 *283:8 4.82863e-05
16 *163:34 *3241:A 4.82919e-05
17 *199:118 *3241:A 2.75229e-05
*RES
1 *3124:Q *283:8 6.465 
2 *283:8 *2907:A 5.745 
3 *283:8 *3241:A 6.555 
*END

*D_NET *284 0.0022622
*CONN
*I *2927:A I *D sky130_fd_sc_hd__and3_1
*I *3220:A I *D sky130_fd_sc_hd__dlygate4sd3_1
*I *3125:Q O *D sky130_fd_sc_hd__dfrtp_1
*CAP
1 *2927:A 0.000459254
2 *3220:A 0.00016523
3 *3125:Q 0.000114323
4 *284:6 0.000738806
5 *2927:A *2980:A1 0.000208423
6 *2927:A *3271:A 0.000270598
7 *3220:A *3176:RESET_B 3.47837e-05
8 *284:6 *3271:A 9.2741e-05
9 *2917:A *3220:A 0
10 *2927:B *2927:A 0.000145352
11 *2962:A *3220:A 3.26889e-05
12 *207:137 *2927:A 0
13 *276:12 *3220:A 0
*RES
1 *3125:Q *284:6 3.085 
2 *284:6 *3220:A 8.36 
3 *284:6 *2927:A 13.22 
*END

*D_NET *285 0.000577933
*CONN
*I *3209:A I *D sky130_fd_sc_hd__dlygate4sd3_1
*I *2947:A I *D sky130_fd_sc_hd__and3_1
*I *3126:Q O *D sky130_fd_sc_hd__dfrtp_1
*CAP
1 *3209:A 0.000119645
2 *2947:A 0
3 *3126:Q 4.91228e-05
4 *285:8 0.000168768
5 *3209:A *2929:A2 2.75229e-05
6 *3209:A *338:28 4.99619e-05
7 *285:8 *338:28 3.90815e-05
8 *2930:B1 *3209:A 4.82919e-05
9 *202:44 *3209:A 0
10 *206:61 *3209:A 7.55391e-05
*RES
1 *3126:Q *285:8 2.41 
2 *285:8 *2947:A 1.6 
3 *285:8 *3209:A 8.135 
*END

*D_NET *286 0.0021989
*CONN
*I *2884:B1 I *D sky130_fd_sc_hd__o21ai_1
*I *3225:A I *D sky130_fd_sc_hd__dlygate4sd3_1
*I *3159:Q O *D sky130_fd_sc_hd__dfrtp_1
*CAP
1 *2884:B1 0.000293738
2 *3225:A 0.000117154
3 *3159:Q 0
4 *286:6 0.000410892
5 *2884:B1 *3159:RESET_B 0.000337531
6 *2884:B1 *347:18 0
7 *3225:A *3051:A0 5.30673e-05
8 *3225:A *3159:RESET_B 3.09233e-05
9 *2926:B *2884:B1 0.000480162
10 *2926:B *3225:A 0.000230876
11 *2950:A *3225:A 8.65961e-05
12 *281:143 *2884:B1 0.000157959
*RES
1 *3159:Q *286:6 3.6 
2 *286:6 *3225:A 7.05 
3 *286:6 *2884:B1 11.835 
*END

*D_NET *287 0.00149658
*CONN
*I *2873:B1 I *D sky130_fd_sc_hd__o21ai_1
*I *3221:A I *D sky130_fd_sc_hd__dlygate4sd3_1
*I *3160:Q O *D sky130_fd_sc_hd__dfrtp_1
*CAP
1 *2873:B1 0.000339161
2 *3221:A 0
3 *3160:Q 5.18769e-05
4 *287:6 0.000391038
5 *2873:B1 *2873:A1 9.09788e-06
6 *2873:B1 *3160:RESET_B 4.88478e-05
7 *2873:B1 *424:49 8.52845e-05
8 *287:6 *3160:RESET_B 0.000162764
9 *2874:B1 *2873:B1 5.06989e-05
10 *2897:A *2873:B1 6.77296e-05
11 *153:24 *2873:B1 4.21518e-05
12 *153:24 *287:6 0.000162764
13 *194:93 *2873:B1 8.51684e-05
*RES
1 *3160:Q *287:6 4.12 
2 *287:6 *3221:A 1.6 
3 *287:6 *2873:B1 12.545 
*END

*D_NET *288 0.00231845
*CONN
*I *2880:B1 I *D sky130_fd_sc_hd__o21ai_1
*I *3229:A I *D sky130_fd_sc_hd__dlygate4sd3_1
*I *3161:Q O *D sky130_fd_sc_hd__dfrtp_1
*CAP
1 *2880:B1 0.000661658
2 *3229:A 0.000205819
3 *3161:Q 0
4 *288:4 0.000867477
5 *2880:B1 *2900:B1 0.000217468
6 *2880:B1 *3205:A 0
7 *2880:B1 *296:10 5.21714e-05
8 *2880:B1 *425:20 0.000313852
9 *3087:S *2880:B1 0
*RES
1 *3161:Q *288:4 1.6 
2 *288:4 *3229:A 4.735 
3 *288:4 *2880:B1 18.26 
*END

*D_NET *289 0.00289141
*CONN
*I *3230:A I *D sky130_fd_sc_hd__dlygate4sd3_1
*I *2882:B1 I *D sky130_fd_sc_hd__o21ai_1
*I *3162:Q O *D sky130_fd_sc_hd__dfrtp_1
*CAP
1 *3230:A 0.000295997
2 *2882:B1 0.000538289
3 *3162:Q 0.000127861
4 *289:10 0.000962148
5 *2882:B1 *2882:A1 1.0555e-05
6 *2882:B1 *2902:B1 0.000371651
7 *3230:A *2902:B1 6.86732e-05
8 *3230:A *3057:A0 7.63125e-05
9 *3230:A *3186:RESET_B 0.000217024
10 *3230:A *3236:A 2.75538e-05
11 *2926:A *2882:B1 0
12 *2946:A *2882:B1 6.55406e-05
13 *3057:S *289:10 8.05962e-05
14 *3058:A *2882:B1 4.92121e-05
*RES
1 *3162:Q *289:10 5.79 
2 *289:10 *2882:B1 15.435 
3 *289:10 *3230:A 10.065 
*END

*D_NET *290 0.00160175
*CONN
*I *3222:A I *D sky130_fd_sc_hd__dlygate4sd3_1
*I *2869:B1 I *D sky130_fd_sc_hd__o21ai_1
*I *3163:Q O *D sky130_fd_sc_hd__dfrtp_1
*CAP
1 *3222:A 0.000236676
2 *2869:B1 0.000403408
3 *3163:Q 0
4 *290:4 0.000640084
5 *2869:B1 *2889:B1 0.00013533
6 *2869:B1 *3059:A0 0
7 *2869:B1 *3059:A1 3.6227e-05
8 *2869:B1 *427:70 1.14169e-05
9 *2870:B1 *2869:B1 6.63502e-05
10 *277:79 *2869:B1 2.97802e-05
11 *277:90 *2869:B1 4.24744e-05
*RES
1 *3163:Q *290:4 1.6 
2 *290:4 *2869:B1 13.145 
3 *290:4 *3222:A 5.08 
*END

*D_NET *291 0.00293433
*CONN
*I *2871:B1 I *D sky130_fd_sc_hd__o21ai_1
*I *3226:A I *D sky130_fd_sc_hd__dlygate4sd3_1
*I *3164:Q O *D sky130_fd_sc_hd__dfrtp_1
*CAP
1 *2871:B1 0.000262446
2 *3226:A 0.000126983
3 *3164:Q 0.000136415
4 *291:10 0.000525844
5 *3226:A *3061:A0 0.000158066
6 *3226:A *3061:A1 0.000115146
7 *291:10 *3061:A0 0.000137571
8 *3055:S *3226:A 9.29176e-05
9 *198:19 *2871:B1 0.000185398
10 *198:19 *291:10 0.00015829
11 *198:142 *2871:B1 0.000334403
12 *202:106 *3226:A 0.000576848
13 *206:150 *291:10 0.000124007
*RES
1 *3164:Q *291:10 6.63 
2 *291:10 *3226:A 9.24 
3 *291:10 *2871:B1 9.57 
*END

*D_NET *292 0.00286288
*CONN
*I *3235:A I *D sky130_fd_sc_hd__dlygate4sd3_1
*I *2878:B1 I *D sky130_fd_sc_hd__o21ai_1
*I *3165:Q O *D sky130_fd_sc_hd__dfrtp_1
*CAP
1 *3235:A 4.04817e-05
2 *2878:B1 0.000683499
3 *3165:Q 0.000186925
4 *292:8 0.000910906
5 *2878:B1 *2999:A0 0
6 *2878:B1 *3133:RESET_B 0
7 *2878:B1 *3165:RESET_B 0
8 *2878:B1 *3269:A 0.000421766
9 *2878:B1 *327:27 0.00011341
10 *2878:B1 *342:71 0
11 *2878:B1 *397:10 7.03276e-05
12 *3235:A *319:33 0.000115779
13 *292:8 *3165:RESET_B 0
14 *292:8 *3269:A 0.000120845
15 *3057:S *3235:A 0.000198945
*RES
1 *3165:Q *292:8 7.275 
2 *292:8 *2878:B1 17.985 
3 *292:8 *3235:A 5.43 
*END

*D_NET *293 0.00201961
*CONN
*I *3217:A I *D sky130_fd_sc_hd__dlygate4sd3_1
*I *2875:B1 I *D sky130_fd_sc_hd__o21ai_1
*I *3166:Q O *D sky130_fd_sc_hd__dfrtp_1
*CAP
1 *3217:A 0.000203152
2 *2875:B1 0.000683848
3 *3166:Q 0
4 *293:4 0.000887
5 *2875:B1 *3166:RESET_B 6.81421e-05
6 *3122:CLK *2875:B1 0.000108075
7 *278:115 *2875:B1 6.93891e-05
*RES
1 *3166:Q *293:4 1.6 
2 *293:4 *2875:B1 9.925 
3 *293:4 *3217:A 4.735 
*END

*D_NET *294 0.00225076
*CONN
*I *2904:B1 I *D sky130_fd_sc_hd__o21ai_1
*I *3216:A I *D sky130_fd_sc_hd__dlygate4sd3_1
*I *3167:Q O *D sky130_fd_sc_hd__dfrtp_1
*CAP
1 *2904:B1 0.000440647
2 *3216:A 0.000192945
3 *3167:Q 3.25408e-05
4 *294:6 0.000666133
5 *2904:B1 *3051:A0 2.75145e-05
6 *2904:B1 *3135:RESET_B 9.37731e-05
7 *2904:B1 *323:22 0.000225934
8 *2904:B1 *399:14 0
9 *3216:A *3167:RESET_B 4.82863e-05
10 *294:6 *3167:RESET_B 2.23611e-05
11 *2950:A *2904:B1 0.000500625
*RES
1 *3167:Q *294:6 2.05 
2 *294:6 *3216:A 4.495 
3 *294:6 *2904:B1 15.905 
*END

*D_NET *295 0.000842411
*CONN
*I *3231:A I *D sky130_fd_sc_hd__dlygate4sd3_1
*I *2893:B1 I *D sky130_fd_sc_hd__o21ai_1
*I *3168:Q O *D sky130_fd_sc_hd__dfrtp_1
*CAP
1 *3231:A 4.4468e-05
2 *2893:B1 1.41866e-05
3 *3168:Q 5.82363e-05
4 *295:10 0.000116891
5 *2893:B1 *2893:A2 8.65905e-05
6 *3231:A *2893:A2 0.000161529
7 *295:10 *2893:A1 3.90349e-05
8 *2894:B1 *3231:A 8.43862e-05
9 *2937:D *3231:A 2.16917e-05
10 *3006:A *2893:B1 8.65905e-05
11 *3006:A *3231:A 3.57349e-05
12 *3006:A *295:10 9.30717e-05
*RES
1 *3168:Q *295:10 6.98 
2 *295:10 *2893:B1 2.395 
3 *295:10 *3231:A 3.43 
*END

*D_NET *296 0.00295663
*CONN
*I *2900:B1 I *D sky130_fd_sc_hd__o21ai_1
*I *3224:A I *D sky130_fd_sc_hd__dlygate4sd3_1
*I *3169:Q O *D sky130_fd_sc_hd__dfrtp_1
*CAP
1 *2900:B1 0.000935583
2 *3224:A 4.11423e-05
3 *3169:Q 0.000126236
4 *296:10 0.00110296
5 *2900:B1 *2900:A1 3.11215e-05
6 *2900:B1 *2991:A1 3.112e-05
7 *2900:B1 *324:10 0
8 *2900:B1 *393:23 3.54721e-05
9 *3224:A *373:20 9.27495e-05
10 *296:10 *324:10 0
11 *2880:B1 *2900:B1 0.000217468
12 *2880:B1 *296:10 5.21714e-05
13 *2901:B1 *2900:B1 1.06344e-05
14 *3087:S *3224:A 9.27495e-05
15 *3087:S *296:10 5.20968e-05
16 *3103:S *296:10 5.30673e-05
17 *3137:CLK *2900:B1 2.24253e-05
18 *3137:D *2900:B1 5.96365e-05
*RES
1 *3169:Q *296:10 6.03 
2 *296:10 *3224:A 5.085 
3 *296:10 *2900:B1 18.6 
*END

*D_NET *297 0.00498143
*CONN
*I *3236:A I *D sky130_fd_sc_hd__dlygate4sd3_1
*I *2902:B1 I *D sky130_fd_sc_hd__o21ai_1
*I *3170:Q O *D sky130_fd_sc_hd__dfrtp_1
*CAP
1 *3236:A 0.000333917
2 *2902:B1 0.00125426
3 *3170:Q 0
4 *297:6 0.00158818
5 *2902:B1 *3057:A1 7.23602e-05
6 *2902:B1 *324:31 0
7 *2902:B1 *426:23 1.89685e-05
8 *2902:B1 *426:38 5.00612e-05
9 *2902:B1 *426:59 0.000125976
10 *3236:A *3057:A0 0
11 *3236:A *3057:A1 9.50342e-06
12 *3236:A *3073:A0 7.23602e-05
13 *3236:A *384:10 0
14 *3236:A *389:32 0.000201508
15 *2882:B1 *2902:B1 0.000371651
16 *2886:B *2902:B1 0
17 *2886:D *2902:B1 0.000156013
18 *2946:A *2902:B1 0.000116853
19 *3089:S *3236:A 0.000201508
20 *3186:CLK *2902:B1 0
21 *3186:CLK *3236:A 0
22 *3199:A *2902:B1 0.000272359
23 *3230:A *2902:B1 6.86732e-05
24 *3230:A *3236:A 2.75538e-05
25 *273:114 *2902:B1 3.97211e-05
26 *281:10 *2902:B1 0
27 *281:23 *2902:B1 0
28 *281:32 *2902:B1 0
*RES
1 *3170:Q *297:6 3.6 
2 *297:6 *2902:B1 29.715 
3 *297:6 *3236:A 10.68 
*END

*D_NET *298 0.00422495
*CONN
*I *3234:A I *D sky130_fd_sc_hd__dlygate4sd3_1
*I *2889:B1 I *D sky130_fd_sc_hd__o21ai_1
*I *3171:Q O *D sky130_fd_sc_hd__dfrtp_1
*CAP
1 *3234:A 9.73191e-06
2 *2889:B1 0.00104683
3 *3171:Q 0.000228659
4 *298:10 0.00128522
5 *2889:B1 *3059:A0 0
6 *2889:B1 *3059:A1 7.23602e-05
7 *2889:B1 *342:56 0
8 *2889:B1 *342:98 0
9 *2889:B1 *427:44 0.000236511
10 *298:10 *3171:RESET_B 0.00019889
11 *298:10 *3189:RESET_B 0
12 *298:10 *389:32 3.67779e-05
13 *2869:B1 *2889:B1 0.00013533
14 *2877:A *2889:B1 0.000264222
15 *3075:S *3234:A 4.82863e-05
16 *3157:D *2889:B1 0.000120186
17 *206:96 *3234:A 4.82863e-05
18 *206:96 *298:10 0
19 *277:66 *2889:B1 0.000199338
20 *277:79 *2889:B1 0.000294309
*RES
1 *3171:Q *298:10 7.065 
2 *298:10 *2889:B1 26.745 
3 *298:10 *3234:A 4.05 
*END

*D_NET *299 0.00268354
*CONN
*I *3215:A I *D sky130_fd_sc_hd__dlygate4sd3_1
*I *2891:B1 I *D sky130_fd_sc_hd__o21ai_1
*I *3172:Q O *D sky130_fd_sc_hd__dfrtp_1
*CAP
1 *3215:A 0.000104362
2 *2891:B1 0.000828454
3 *3172:Q 0
4 *299:4 0.000932816
5 *2891:B1 *3172:RESET_B 0.000159045
6 *2891:B1 *390:26 2.12738e-05
7 *2891:B1 *404:12 0
8 *3215:A *3172:RESET_B 0.000164874
9 *3172:CLK *2891:B1 0
10 *194:20 *2891:B1 0.000351885
11 *275:47 *2891:B1 7.2283e-05
12 *275:47 *3215:A 4.85494e-05
13 *275:70 *2891:B1 0
*RES
1 *3172:Q *299:4 1.6 
2 *299:4 *2891:B1 20.165 
3 *299:4 *3215:A 4.12 
*END

*D_NET *300 0.00613628
*CONN
*I *3237:A I *D sky130_fd_sc_hd__dlygate4sd3_1
*I *2898:B1 I *D sky130_fd_sc_hd__o21ai_1
*I *3173:Q O *D sky130_fd_sc_hd__dfrtp_1
*CAP
1 *3237:A 0.000378065
2 *2898:B1 0.000867538
3 *3173:Q 9.73071e-05
4 *300:6 0.00134291
5 *2898:B1 *319:22 5.7907e-05
6 *300:6 *3173:RESET_B 1.81873e-05
7 *300:6 *3181:RESET_B 5.05437e-05
8 *3057:S *2898:B1 7.23533e-05
9 *3073:S *3237:A 0.000109175
10 *3075:S *300:6 0.000201503
11 *3096:A *2898:B1 7.95992e-05
12 *3173:D *3237:A 9.99135e-05
13 *3181:CLK *2898:B1 0
14 *3181:CLK *3237:A 6.0011e-05
15 *3181:CLK *300:6 7.64643e-05
16 *198:33 *2898:B1 0.00191806
17 *198:39 *2898:B1 0.000202256
18 *280:48 *2898:B1 0.000124728
19 *280:59 *2898:B1 5.93674e-05
20 *280:78 *2898:B1 0.000305133
21 *280:89 *2898:B1 1.52491e-05
*RES
1 *3173:Q *300:6 4.465 
2 *300:6 *2898:B1 32.525 
3 *300:6 *3237:A 8.38 
*END

*D_NET *301 0.00152099
*CONN
*I *3240:A I *D sky130_fd_sc_hd__dlygate4sd3_1
*I *2895:B1 I *D sky130_fd_sc_hd__o21ai_1
*I *3174:Q O *D sky130_fd_sc_hd__dfrtp_1
*CAP
1 *3240:A 5.00416e-05
2 *2895:B1 0.000223282
3 *3174:Q 0.000118495
4 *301:10 0.000391819
5 *2895:B1 *2895:A2 4.99619e-05
6 *207:43 *2895:B1 0.00057467
7 *207:43 *3240:A 0.000112717
*RES
1 *3174:Q *301:10 7.235 
2 *301:10 *2895:B1 6.88 
3 *301:10 *3240:A 2.74 
*END

*D_NET *302 0.00203057
*CONN
*I *3244:A I *D sky130_fd_sc_hd__dlygate4sd3_1
*I *2924:B1 I *D sky130_fd_sc_hd__o21ai_1
*I *3175:Q O *D sky130_fd_sc_hd__dfrtp_1
*CAP
1 *3244:A 0.000318081
2 *2924:B1 0.00030294
3 *3175:Q 0
4 *302:4 0.000621021
5 *2924:B1 *3207:A 0.000222753
6 *2924:B1 *323:12 9.40025e-05
7 *2924:B1 *347:52 0.000139933
8 *2924:B1 *347:72 5.09929e-05
9 *2924:B1 *407:14 0.00023424
10 *3244:A *348:18 4.66108e-05
*RES
1 *3175:Q *302:4 1.6 
2 *302:4 *2924:B1 12.38 
3 *302:4 *3244:A 9.5 
*END

*D_NET *303 0.00165603
*CONN
*I *3243:A I *D sky130_fd_sc_hd__dlygate4sd3_1
*I *2913:B1 I *D sky130_fd_sc_hd__o21ai_1
*I *3176:Q O *D sky130_fd_sc_hd__dfrtp_1
*CAP
1 *3243:A 4.31188e-05
2 *2913:B1 0.000153247
3 *3176:Q 9.8686e-05
4 *303:8 0.000295052
5 *2913:B1 *2913:A2 4.82919e-05
6 *2913:B1 *2914:A1 4.66108e-05
7 *2913:B1 *362:24 0.000231351
8 *2913:B1 *424:107 2.92496e-05
9 *303:8 *362:16 4.38278e-05
10 *2917:C *2913:B1 7.23602e-05
11 *2927:B *2913:B1 2.75538e-05
12 *2927:B *3243:A 4.40812e-05
13 *207:137 *2913:B1 0.00041497
14 *207:137 *3243:A 0.000107627
*RES
1 *3176:Q *303:8 4.74 
2 *303:8 *2913:B1 9.555 
3 *303:8 *3243:A 4.98 
*END

*D_NET *304 0.00265801
*CONN
*I *2920:B1 I *D sky130_fd_sc_hd__o21ai_1
*I *3223:A I *D sky130_fd_sc_hd__dlygate4sd3_1
*I *3177:Q O *D sky130_fd_sc_hd__dfrtp_1
*CAP
1 *2920:B1 0.000453862
2 *3223:A 0
3 *3177:Q 0.000532333
4 *304:10 0.000986194
5 *2920:B1 *2940:B1 0
6 *2920:B1 *3103:A0 0
7 *2920:B1 *417:14 2.747e-05
8 *304:10 *2940:B1 0
9 *304:10 *3087:A0 0
10 *304:10 *3103:A0 0
11 *304:10 *3177:RESET_B 0
12 *304:10 *312:10 0
13 *2941:B1 *2920:B1 0.000176699
14 *3088:A *304:10 0
15 *3103:S *304:10 6.28843e-05
16 *3145:CLK *2920:B1 8.44945e-05
17 *3153:CLK *2920:B1 0.00015531
18 *3177:CLK *304:10 0.000131658
19 *279:112 *2920:B1 4.71087e-05
*RES
1 *3177:Q *304:10 12.945 
2 *304:10 *3223:A 3.6 
3 *304:10 *2920:B1 12.915 
*END

*D_NET *305 0.00312823
*CONN
*I *3233:A I *D sky130_fd_sc_hd__dlygate4sd3_1
*I *2922:B1 I *D sky130_fd_sc_hd__o21ai_1
*I *3178:Q O *D sky130_fd_sc_hd__dfrtp_1
*CAP
1 *3233:A 0.000468237
2 *2922:B1 0.000487942
3 *3178:Q 9.40903e-05
4 *305:8 0.00105027
5 *2922:B1 *2922:A2 0.00012657
6 *2922:B1 *2942:B1 0.000377882
7 *2922:B1 *3105:A1 0
8 *2922:B1 *3186:RESET_B 0
9 *2922:B1 *313:8 4.19797e-05
10 *2922:B1 *320:8 0
11 *3233:A *3089:A1 0
12 *3233:A *3105:A1 0
13 *3233:A *320:8 0
14 *3233:A *389:18 0.000171695
15 *305:8 *384:40 5.13899e-05
16 *2946:A *2922:B1 5.83373e-05
17 *3089:S *3233:A 0.000199833
18 *3090:A *2922:B1 0
19 *3090:A *3233:A 0
20 *206:110 *3233:A 0
*RES
1 *3178:Q *305:8 5.085 
2 *305:8 *2922:B1 14.535 
3 *305:8 *3233:A 11.805 
*END

*D_NET *306 0.00317981
*CONN
*I *3238:A I *D sky130_fd_sc_hd__dlygate4sd3_1
*I *2909:B1 I *D sky130_fd_sc_hd__o21ai_1
*I *3179:Q O *D sky130_fd_sc_hd__dfrtp_1
*CAP
1 *3238:A 0.000209221
2 *2909:B1 0.00105041
3 *3179:Q 0
4 *306:4 0.00125963
5 *2909:B1 *3043:A1 2.46007e-05
6 *2909:B1 *338:28 3.86529e-05
7 *3047:S *2909:B1 0
8 *3179:CLK *2909:B1 2.75229e-05
9 *3179:D *2909:B1 4.99619e-05
10 *207:149 *2909:B1 0
11 *276:70 *2909:B1 0
12 *276:86 *2909:B1 0.000153028
13 *276:99 *2909:B1 0.000366786
*RES
1 *3179:Q *306:4 1.6 
2 *306:4 *2909:B1 22.4 
3 *306:4 *3238:A 4.735 
*END

*D_NET *307 0.00294969
*CONN
*I *2911:B1 I *D sky130_fd_sc_hd__o21ai_1
*I *3211:A I *D sky130_fd_sc_hd__dlygate4sd3_1
*I *3180:Q O *D sky130_fd_sc_hd__dfrtp_1
*CAP
1 *2911:B1 0.000351082
2 *3211:A 0.000385501
3 *3180:Q 0.000114343
4 *307:10 0.000850926
5 *2911:B1 *325:12 0
6 *2911:B1 *339:38 0
7 *2911:B1 *339:54 0.000156155
8 *2911:B1 *339:56 0.000517447
9 *3211:A *3093:A0 4.60584e-05
10 *307:10 *3180:RESET_B 1.4389e-05
11 *307:10 *325:12 0
12 *307:10 *339:56 0.000116165
13 *3045:S *2911:B1 0
14 *3093:S *3211:A 0.000350943
15 *3094:A *3211:A 4.66826e-05
16 *3180:D *307:10 0
*RES
1 *3180:Q *307:10 5.43 
2 *307:10 *3211:A 10.29 
3 *307:10 *2911:B1 11.865 
*END

*D_NET *308 0.00270867
*CONN
*I *3232:A I *D sky130_fd_sc_hd__dlygate4sd3_1
*I *2918:B1 I *D sky130_fd_sc_hd__o21ai_1
*I *3181:Q O *D sky130_fd_sc_hd__dfrtp_1
*CAP
1 *3232:A 0.000346332
2 *2918:B1 0.000738125
3 *3181:Q 0
4 *308:6 0.00108446
5 *2918:B1 *3269:A 0
6 *2918:B1 *348:104 8.66976e-06
7 *2918:B1 *427:32 7.36562e-05
8 *3232:A *3269:A 0
9 *3232:A *348:104 2.24336e-05
10 *3075:S *2918:B1 0
11 *3096:A *2918:B1 0
12 *3096:A *3232:A 0
13 *3149:CLK *2918:B1 8.8266e-05
14 *3181:D *2918:B1 7.23533e-05
15 *182:12 *2918:B1 3.45679e-05
16 *198:33 *2918:B1 0
17 *198:39 *2918:B1 0
18 *206:110 *3232:A 0.000239813
*RES
1 *3181:Q *308:6 3.6 
2 *308:6 *2918:B1 16.74 
3 *308:6 *3232:A 9.96 
*END

*D_NET *309 0.00296165
*CONN
*I *2915:B1 I *D sky130_fd_sc_hd__o21ai_1
*I *3214:A I *D sky130_fd_sc_hd__dlygate4sd3_1
*I *3182:Q O *D sky130_fd_sc_hd__dfrtp_1
*CAP
1 *2915:B1 0.000735662
2 *3214:A 0.000215363
3 *3182:Q 0
4 *309:4 0.000951025
5 *2915:B1 *3097:A0 1.1561e-05
6 *2915:B1 *3228:A 4.65643e-05
7 *2915:B1 *336:10 0.000267521
8 *2916:B1 *2915:B1 4.9253e-06
9 *3114:A *2915:B1 7.23602e-05
10 *198:33 *2915:B1 0
11 *206:150 *2915:B1 0.000117832
12 *278:16 *2915:B1 0.000339893
13 *278:20 *2915:B1 0
14 *278:28 *2915:B1 0
15 *278:28 *3214:A 0.000198939
*RES
1 *3182:Q *309:4 1.6 
2 *309:4 *3214:A 5.185 
3 *309:4 *2915:B1 20.42 
*END

*D_NET *310 0.00115539
*CONN
*I *2944:B1 I *D sky130_fd_sc_hd__o21ai_1
*I *3242:A I *D sky130_fd_sc_hd__dlygate4sd3_1
*I *3183:Q O *D sky130_fd_sc_hd__dfrtp_1
*CAP
1 *2944:B1 0.000268958
2 *3242:A 0.000193646
3 *3183:Q 0
4 *310:4 0.000462604
5 *2944:B1 *323:12 0.000163464
6 *3242:A *347:72 6.67195e-05
*RES
1 *3183:Q *310:4 1.6 
2 *310:4 *3242:A 4.735 
3 *310:4 *2944:B1 10.1 
*END

*D_NET *311 0.00167642
*CONN
*I *3239:A I *D sky130_fd_sc_hd__dlygate4sd3_1
*I *2933:B1 I *D sky130_fd_sc_hd__o21ai_1
*I *3184:Q O *D sky130_fd_sc_hd__dfrtp_1
*CAP
1 *3239:A 0.000160119
2 *2933:B1 0.000139563
3 *3184:Q 0.000100367
4 *311:8 0.000400049
5 *2933:B1 *2933:A2 1.53172e-05
6 *2933:B1 *424:90 4.82863e-05
7 *2933:B1 *428:27 0
8 *3239:A *3101:A0 4.66108e-05
9 *3239:A *322:28 0.000271308
10 *2917:B *2933:B1 9.5001e-05
11 *2917:B *3239:A 3.90266e-05
12 *2934:B1 *2933:B1 1.14192e-05
13 *2937:A *2933:B1 8.53113e-06
14 *2937:A *3239:A 0.000114492
15 *2937:A *311:8 4.77719e-05
16 *2937:B *2933:B1 0.000178553
*RES
1 *3184:Q *311:8 4.74 
2 *311:8 *2933:B1 7.26 
3 *311:8 *3239:A 7.5 
*END

*D_NET *312 0.0019086
*CONN
*I *3219:A I *D sky130_fd_sc_hd__dlygate4sd3_1
*I *2940:B1 I *D sky130_fd_sc_hd__o21ai_1
*I *3185:Q O *D sky130_fd_sc_hd__dfrtp_1
*CAP
1 *3219:A 8.30857e-05
2 *2940:B1 0.000419997
3 *3185:Q 0.000204002
4 *312:10 0.000707085
5 *2940:B1 *2921:A2 3.75882e-06
6 *2940:B1 *2941:A2 2.50751e-05
7 *2940:B1 *3103:A0 4.82919e-05
8 *2940:B1 *346:41 0
9 *2940:B1 *346:67 0
10 *2940:B1 *425:20 2.99548e-05
11 *312:10 *3087:A0 3.86607e-05
12 *312:10 *346:41 0
13 *2920:B1 *2940:B1 0
14 *3088:A *312:10 7.4027e-05
15 *3145:CLK *2940:B1 0
16 *207:43 *2940:B1 8.65905e-05
17 *207:43 *3219:A 0.000188069
18 *304:10 *2940:B1 0
19 *304:10 *312:10 0
*RES
1 *3185:Q *312:10 9.275 
2 *312:10 *2940:B1 12.365 
3 *312:10 *3219:A 3.43 
*END

*D_NET *313 0.00302305
*CONN
*I *3218:A I *D sky130_fd_sc_hd__dlygate4sd3_1
*I *2942:B1 I *D sky130_fd_sc_hd__o21ai_1
*I *3186:Q O *D sky130_fd_sc_hd__dfrtp_1
*CAP
1 *3218:A 0.000165316
2 *2942:B1 0.000337103
3 *3186:Q 3.96234e-05
4 *313:8 0.000542042
5 *2942:B1 *2922:A2 6.6564e-05
6 *2942:B1 *2942:A1 2.49909e-05
7 *2942:B1 *2942:A2 0.000387891
8 *2942:B1 *3041:A0 7.00889e-06
9 *2942:B1 *3105:A1 9.50342e-06
10 *2942:B1 *3146:RESET_B 4.92128e-05
11 *2942:B1 *3178:RESET_B 0.000187088
12 *2942:B1 *347:97 0.00010141
13 *2942:B1 *418:12 7.23602e-05
14 *3218:A *3105:A0 0.000198945
15 *313:8 *3105:A1 0.000117825
16 *2922:B1 *2942:B1 0.000377882
17 *2922:B1 *313:8 4.19797e-05
18 *2943:B1 *2942:B1 3.30601e-05
19 *2946:A *2942:B1 9.14049e-05
20 *3106:A *3218:A 0
21 *3178:D *3218:A 0.000171845
*RES
1 *3186:Q *313:8 4.98 
2 *313:8 *2942:B1 15.525 
3 *313:8 *3218:A 7.86 
*END

*D_NET *314 0.00192537
*CONN
*I *3210:A I *D sky130_fd_sc_hd__dlygate4sd3_1
*I *2929:B1 I *D sky130_fd_sc_hd__o21ai_1
*I *3187:Q O *D sky130_fd_sc_hd__dfrtp_1
*CAP
1 *3210:A 0.000170196
2 *2929:B1 0.000589009
3 *3187:Q 8.67182e-05
4 *314:8 0.000845923
5 *2929:B1 *2929:A1 4.19967e-05
6 *3210:A *3107:A1 5.05521e-05
7 *3092:A *314:8 5.43769e-05
8 *202:44 *2929:B1 0
9 *202:44 *3210:A 0
10 *202:73 *3210:A 0
11 *206:61 *2929:B1 0
12 *206:61 *3210:A 0
13 *206:96 *3210:A 8.65961e-05
*RES
1 *3187:Q *314:8 5.085 
2 *314:8 *2929:B1 13.395 
3 *314:8 *3210:A 6.795 
*END

*D_NET *315 0.00191717
*CONN
*I *2931:B1 I *D sky130_fd_sc_hd__o21ai_1
*I *3213:A I *D sky130_fd_sc_hd__dlygate4sd3_1
*I *3188:Q O *D sky130_fd_sc_hd__dfrtp_1
*CAP
1 *2931:B1 0.000507384
2 *3213:A 5.33508e-05
3 *3188:Q 0.000118394
4 *315:8 0.000679129
5 *2931:B1 *2931:A1 1.22762e-05
6 *2931:B1 *3093:A1 8.25609e-05
7 *3213:A *3109:A0 5.05521e-05
8 *3046:A *2931:B1 0
9 *3109:S *3213:A 0.000201508
10 *3110:A *3213:A 9.70988e-05
11 *3188:D *315:8 0
12 *206:8 *3213:A 0.000114912
13 *206:29 *2931:B1 0
*RES
1 *3188:Q *315:8 5.235 
2 *315:8 *3213:A 6.465 
3 *315:8 *2931:B1 11.865 
*END

*D_NET *316 0.00295895
*CONN
*I *3227:A I *D sky130_fd_sc_hd__dlygate4sd3_1
*I *2938:B1 I *D sky130_fd_sc_hd__o21ai_1
*I *3189:Q O *D sky130_fd_sc_hd__dfrtp_1
*CAP
1 *3227:A 0.000160213
2 *2938:B1 0.00053813
3 *3189:Q 0.000162381
4 *316:8 0.000860724
5 *2938:B1 *2938:A1 6.48789e-05
6 *2938:B1 *2938:A2 4.82863e-05
7 *2938:B1 *3111:A0 0.000181376
8 *2938:B1 *3111:A1 0.000206116
9 *2938:B1 *3165:RESET_B 0
10 *2938:B1 *3189:RESET_B 0
11 *2938:B1 *342:69 1.19928e-05
12 *2938:B1 *342:71 0
13 *3227:A *3111:A0 7.23602e-05
14 *3112:A *3227:A 0
15 *3165:D *2938:B1 0.000141006
16 *194:125 *2938:B1 0
17 *202:73 *316:8 0.000173998
18 *206:110 *2938:B1 3.56353e-05
19 *206:110 *3227:A 0.000301849
*RES
1 *3189:Q *316:8 5.775 
2 *316:8 *2938:B1 15.12 
3 *316:8 *3227:A 7.5 
*END

*D_NET *317 0.00443835
*CONN
*I *3228:A I *D sky130_fd_sc_hd__dlygate4sd3_1
*I *2935:B1 I *D sky130_fd_sc_hd__o21ai_1
*I *3190:Q O *D sky130_fd_sc_hd__dfrtp_1
*CAP
1 *3228:A 0.000244257
2 *2935:B1 0.000877302
3 *3190:Q 3.28188e-05
4 *317:6 0.00115438
5 *2935:B1 *2935:A1 8.08153e-06
6 *2935:B1 *327:10 0
7 *2935:B1 *345:106 0.000111302
8 *2935:B1 *422:12 0.000162412
9 *3228:A *3097:A0 0.000158965
10 *3228:A *3097:A1 0.000237249
11 *3228:A *3113:A0 0.000200615
12 *3228:A *320:31 0.000377914
13 *3228:A *336:10 0.000332816
14 *317:6 *345:106 1.61831e-05
15 *2915:B1 *3228:A 4.65643e-05
16 *3055:S *2935:B1 2.34083e-05
17 *3103:S *3228:A 0.000167003
18 *3114:A *3228:A 7.23602e-05
19 *3182:D *2935:B1 0.00015997
20 *3190:D *2935:B1 0
21 *206:150 *3228:A 5.4751e-05
*RES
1 *3190:Q *317:6 2.05 
2 *317:6 *2935:B1 19.64 
3 *317:6 *3228:A 15.515 
*END

*D_NET *318 0.0198589
*CONN
*I *2985:A1 I *D sky130_fd_sc_hd__mux2_1
*I *2975:A1 I *D sky130_fd_sc_hd__mux2_1
*I *2970:A0 I *D sky130_fd_sc_hd__mux2_1
*I *2980:A1 I *D sky130_fd_sc_hd__mux2_1
*I *3245:X O *D sky130_fd_sc_hd__clkbuf_2
*CAP
1 *2985:A1 0
2 *2975:A1 0.00041272
3 *2970:A0 0
4 *2980:A1 0.0011079
5 *3245:X 0.00146839
6 *318:55 0.00177183
7 *318:28 0.00277312
8 *318:24 0.00242641
9 *318:14 0.0035887
10 *2975:A1 *2949:D 0
11 *2975:A1 *2970:A1 0.000216721
12 *2975:A1 *344:37 0
13 *2980:A1 *2961:A1 5.53249e-06
14 *2980:A1 *2961:S 2.49909e-05
15 *2980:A1 *2980:A0 6.58339e-05
16 *318:14 *3272:A 0.00272665
17 *318:14 *362:8 0
18 *318:24 *2985:A0 4.53487e-05
19 *318:24 *3027:A0 0.000178912
20 *318:24 *325:41 0.000460901
21 *318:24 *427:96 8.51072e-05
22 *318:28 *343:113 0.000329316
23 *318:28 *427:96 8.33066e-06
24 *318:55 *3139:RESET_B 1.86458e-05
25 *318:55 *343:37 0.000286196
26 *318:55 *343:57 7.55111e-05
27 *2910:B1 *318:24 2.16833e-05
28 *2927:A *2980:A1 0.000208423
29 *2927:B *2980:A1 1.51312e-05
30 *2937:A *2980:A1 0.000467266
31 *2947:B *318:24 0
32 *2947:B *318:28 0
33 *2970:S *2975:A1 4.60584e-05
34 *2970:S *318:55 1.08758e-05
35 *2971:A *318:55 5.87405e-05
36 *2980:S *2980:A1 8.73389e-06
37 *2985:S *318:24 0.000327652
38 *3028:A *318:24 5.30673e-05
39 *3120:D *2980:A1 0
40 *3123:D *318:55 4.82863e-05
41 *3139:CLK *2980:A1 5.49035e-05
42 *3139:CLK *318:55 0.000137286
43 *3147:D *318:24 0.00012657
44 *3245:A *318:14 0
45 *195:115 *2975:A1 0
46 *207:137 *2980:A1 0
47 *207:137 *318:24 8.40269e-05
48 *273:50 *2980:A1 0.000113124
*RES
1 *3245:X *318:14 41.195 
2 *318:14 *318:24 36.29 
3 *318:24 *318:28 8.99 
4 *318:28 *2980:A1 20.93 
5 *318:28 *318:55 19.59 
6 *318:55 *2970:A0 1.6 
7 *318:55 *2975:A1 12.98 
8 *318:24 *2985:A1 3.6 
*END

*D_NET *319 0.0139351
*CONN
*I *3095:A1 I *D sky130_fd_sc_hd__mux2_1
*I *3063:A0 I *D sky130_fd_sc_hd__mux2_1
*I *3111:A1 I *D sky130_fd_sc_hd__mux2_1
*I *3079:A1 I *D sky130_fd_sc_hd__mux2_1
*I *3246:X O *D sky130_fd_sc_hd__clkbuf_2
*CAP
1 *3095:A1 0
2 *3063:A0 6.82531e-06
3 *3111:A1 0.000318393
4 *3079:A1 0
5 *3246:X 0.000957212
6 *319:33 0.000862336
7 *319:22 0.000709001
8 *319:16 0.000311488
9 *319:14 0.00279258
10 *319:10 0.00361019
11 *3111:A1 *3111:A0 0.000105508
12 *3111:A1 *3165:RESET_B 0
13 *319:10 *2951:A1 0.000496939
14 *319:16 *3095:A0 0.000139245
15 *319:22 *3079:A0 7.00889e-06
16 *2898:B1 *319:22 5.7907e-05
17 *2938:B1 *3111:A1 0.000206116
18 *3057:S *319:33 0.000118901
19 *3063:S *3063:A0 1.85674e-05
20 *3063:S *319:33 5.4155e-06
21 *3064:A *3063:A0 0
22 *3064:A *3111:A1 9.22715e-05
23 *3073:S *319:22 1.82667e-05
24 *3073:S *319:33 3.14081e-05
25 *3075:S *3111:A1 0.00013533
26 *3075:S *319:33 8.23457e-05
27 *3096:A *319:22 0
28 *3096:A *319:33 0.000115146
29 *3173:D *319:16 0
30 *3173:D *319:22 0
31 *3181:CLK *319:22 0.000226555
32 *3235:A *319:33 0.000115779
33 *3258:A *319:10 1.82571e-05
34 *194:125 *3111:A1 7.60965e-05
35 *194:125 *319:33 2.8185e-05
36 *198:70 *319:33 4.66108e-05
37 *206:96 *3111:A1 4.66108e-05
38 *206:110 *319:14 0.00217861
*RES
1 *3246:X *319:10 23.81 
2 *319:10 *319:14 49.715 
3 *319:14 *319:16 2.655 
4 *319:16 *319:22 5.87 
5 *319:22 *3079:A1 1.6 
6 *319:22 *319:33 9.45 
7 *319:33 *3111:A1 12.71 
8 *319:33 *3063:A0 1.96 
9 *319:16 *3095:A1 3.6 
*END

*D_NET *320 0.0162555
*CONN
*I *3081:A1 I *D sky130_fd_sc_hd__mux2_1
*I *3113:A1 I *D sky130_fd_sc_hd__mux2_1
*I *3097:A1 I *D sky130_fd_sc_hd__mux2_1
*I *3065:A0 I *D sky130_fd_sc_hd__mux2_1
*I *3247:X O *D sky130_fd_sc_hd__clkbuf_2
*CAP
1 *3081:A1 0.000133315
2 *3113:A1 0
3 *3097:A1 0.000236544
4 *3065:A0 0.000179576
5 *3247:X 0
6 *320:31 0.000523721
7 *320:25 0.00132526
8 *320:14 0.00191656
9 *320:8 0.00470213
10 *320:6 0.00386991
11 *3065:A0 *3065:A1 0.000122202
12 *3097:A1 *3097:A0 6.38722e-05
13 *320:8 *3186:RESET_B 0.000254651
14 *320:8 *324:10 0
15 *320:8 *324:31 0
16 *320:8 *426:81 8.61667e-05
17 *320:8 *426:90 9.67225e-05
18 *320:8 *426:109 0.000120092
19 *320:14 *2881:A1 0.000194914
20 *320:14 *2881:A2 1.91597e-05
21 *320:14 *425:49 8.34745e-05
22 *320:25 *3017:A1 0.000111235
23 *320:25 *3081:A0 0
24 *320:25 *328:14 0.000401732
25 *320:25 *345:106 0.000121868
26 *320:25 *406:25 7.27704e-06
27 *320:31 *328:14 3.86607e-05
28 *320:31 *345:106 3.67779e-05
29 *2881:B1 *320:14 8.35118e-05
30 *2886:B *320:14 1.08036e-05
31 *2922:B1 *320:8 0
32 *2954:A *320:8 0
33 *2956:A *320:8 0
34 *3052:A *320:8 0
35 *3065:S *3065:A0 2.21074e-05
36 *3071:S *320:25 7.23602e-05
37 *3090:A *320:8 0
38 *3116:D *320:8 0
39 *3138:CLK *320:8 0
40 *3146:D *320:8 2.16389e-05
41 *3154:D *320:8 0.000404416
42 *3159:CLK *320:8 0
43 *3186:CLK *320:8 0
44 *3186:D *320:8 3.86529e-05
45 *3228:A *3097:A1 0.000237249
46 *3228:A *320:31 0.000377914
47 *3233:A *320:8 0
48 *199:80 *320:8 0.00014262
49 *278:50 *3081:A1 0.000198429
50 *279:16 *320:8 0
51 *279:22 *320:8 0
52 *279:52 *320:8 0
53 *281:10 *320:8 0
54 *281:23 *320:8 0
55 *281:32 *320:8 0
56 *281:113 *320:8 0
57 *281:115 *320:8 0
*RES
1 *3247:X *320:6 3.6 
2 *320:6 *320:8 66.915 
3 *320:8 *320:14 14.885 
4 *320:14 *3065:A0 4.465 
5 *320:14 *320:25 18.68 
6 *320:25 *320:31 6.425 
7 *320:31 *3097:A1 4.81 
8 *320:31 *3113:A1 1.6 
9 *320:25 *3081:A1 5.43 
*END

*D_NET *321 0.0128739
*CONN
*I *3035:A1 I *D sky130_fd_sc_hd__mux2_1
*I *3019:A1 I *D sky130_fd_sc_hd__mux2_1
*I *2987:A0 I *D sky130_fd_sc_hd__mux2_1
*I *3003:A1 I *D sky130_fd_sc_hd__mux2_1
*I *3248:X O *D sky130_fd_sc_hd__clkbuf_2
*CAP
1 *3035:A1 0
2 *3019:A1 0.000114142
3 *2987:A0 0.000577447
4 *3003:A1 0.000244841
5 *3248:X 0.00130025
6 *321:14 0.000962689
7 *321:12 0.000803084
8 *321:10 0.00250704
9 *321:8 0.00325876
10 *2987:A0 *2987:A1 4.99619e-05
11 *3003:A1 *2904:A2 0.000138551
12 *3003:A1 *351:25 1.07797e-05
13 *3003:A1 *351:38 5.55616e-05
14 *3003:A1 *399:16 8.65905e-05
15 *3003:A1 *423:39 0
16 *321:10 *3115:RESET_B 0
17 *321:10 *347:80 0.000198279
18 *321:10 *347:91 0.000164679
19 *321:10 *389:18 0
20 *321:10 *415:12 0
21 *321:10 *423:8 0
22 *321:10 *423:14 0
23 *321:12 *347:80 0.000136182
24 *321:12 *423:29 0
25 *321:14 *423:31 0
26 *321:14 *423:39 0
27 *2905:B1 *3003:A1 0.000120652
28 *2925:B1 *3019:A1 0.000158066
29 *3041:S *321:10 4.21314e-05
30 *3084:A *321:12 7.1624e-05
31 *3143:D *321:12 8.45475e-05
32 *3143:D *321:14 8.53113e-06
33 *3175:CLK *321:12 0
34 *3266:A *321:8 3.57898e-05
35 *207:66 *3003:A1 0.000296775
36 *207:66 *321:12 0.000831693
37 *207:66 *321:14 0.000252977
38 *207:77 *321:10 9.50342e-06
39 *207:77 *321:12 0.000352768
*RES
1 *3248:X *321:8 17.85 
2 *321:8 *321:10 34.02 
3 *321:10 *321:12 13.875 
4 *321:12 *321:14 2.91 
5 *321:14 *3003:A1 10.11 
6 *321:14 *2987:A0 11.985 
7 *321:12 *3019:A1 5.085 
8 *321:10 *3035:A1 3.6 
*END

*D_NET *322 0.011077
*CONN
*I *3021:A1 I *D sky130_fd_sc_hd__mux2_1
*I *3037:A1 I *D sky130_fd_sc_hd__mux2_1
*I *2989:A0 I *D sky130_fd_sc_hd__mux2_1
*I *3005:A1 I *D sky130_fd_sc_hd__mux2_1
*I *3249:X O *D sky130_fd_sc_hd__buf_1
*CAP
1 *3021:A1 0.000154468
2 *3037:A1 0
3 *2989:A0 9.08732e-05
4 *3005:A1 0.000269311
5 *3249:X 0.00206785
6 *322:28 0.00101503
7 *322:16 0.000965297
8 *322:10 0.00253277
9 *2989:A0 *392:12 4.66826e-05
10 *2989:A0 *392:27 2.93678e-05
11 *3005:A1 *2893:A2 3.50033e-05
12 *3005:A1 *3069:A0 0
13 *3005:A1 *392:12 0
14 *3005:A1 *424:49 0
15 *3021:A1 *408:10 0.000120186
16 *322:16 *3037:A0 2.0514e-05
17 *322:16 *3144:RESET_B 0.000288777
18 *322:16 *408:10 7.35729e-05
19 *322:28 *3037:A0 8.65905e-05
20 *322:28 *3053:A0 3.90495e-05
21 *322:28 *3069:A1 9.53428e-06
22 *322:28 *3101:A0 0.00013781
23 *322:28 *362:24 4.82863e-05
24 *322:28 *362:33 0.00102093
25 *2894:B1 *3005:A1 0.000136231
26 *2989:S *2989:A0 8.60799e-05
27 *3005:S *3005:A1 7.06739e-05
28 *3022:A *3021:A1 4.00541e-06
29 *3037:S *322:28 0.000201503
30 *3069:S *2989:A0 0.000159121
31 *3069:S *322:28 0.000278111
32 *3070:A *322:28 8.8266e-05
33 *3102:A *322:28 1.61831e-05
34 *3144:CLK *322:10 0.00053707
35 *3168:D *322:28 5.0751e-05
36 *3239:A *322:28 0.000271308
37 *203:14 *3021:A1 0
38 *203:14 *322:10 0
39 *274:77 *322:10 0.000125788
*RES
1 *3249:X *322:10 30.615 
2 *322:10 *322:16 8.33 
3 *322:16 *322:28 17.955 
4 *322:28 *3005:A1 10.295 
5 *322:28 *2989:A0 4.12 
6 *322:16 *3037:A1 1.6 
7 *322:10 *3021:A1 6.39 
*END

*D_NET *323 0.0115655
*CONN
*I *3023:A1 I *D sky130_fd_sc_hd__mux2_1
*I *3039:A1 I *D sky130_fd_sc_hd__mux2_1
*I *2991:A0 I *D sky130_fd_sc_hd__mux2_1
*I *3007:A1 I *D sky130_fd_sc_hd__mux2_1
*I *3250:X O *D sky130_fd_sc_hd__dlymetal6s2s_1
*CAP
1 *3023:A1 1.8664e-05
2 *3039:A1 0
3 *2991:A0 0
4 *3007:A1 0.000252073
5 *3250:X 0.00182307
6 *323:32 0.00081967
7 *323:26 0.000807641
8 *323:22 0.00139752
9 *323:12 0.00296188
10 *323:12 *3143:RESET_B 7.01123e-05
11 *323:12 *3208:A 0
12 *323:12 *347:52 0.000139933
13 *323:12 *347:72 0.00066944
14 *323:12 *407:14 7.4027e-05
15 *323:22 *3023:A0 8.73389e-06
16 *323:22 *3135:RESET_B 0.000137578
17 *323:22 *346:111 0.000848863
18 *323:26 *3023:A0 1.34618e-05
19 *323:32 *2920:A1 1.42598e-05
20 *323:32 *2921:A2 2.21074e-05
21 *323:32 *2941:A1 1.54665e-05
22 *323:32 *2941:A2 8.46818e-05
23 *323:32 *2991:A1 4.77807e-05
24 *323:32 *3039:A0 1.56428e-05
25 *323:32 *425:124 4.17267e-05
26 *2904:B1 *323:22 0.000225934
27 *2924:B1 *323:12 9.40025e-05
28 *2926:B *323:32 2.69217e-05
29 *2944:B1 *323:12 0.000163464
30 *2991:S *3007:A1 9.73303e-05
31 *3019:S *323:12 0
32 *3023:S *3007:A1 0.000193119
33 *3024:A *323:26 3.72742e-05
34 *3040:A *323:32 0.000159722
35 *195:48 *3007:A1 0.000283392
*RES
1 *3250:X *323:12 35.8425 
2 *323:12 *323:22 23.9525 
3 *323:22 *323:26 3.57 
4 *323:26 *323:32 10.23 
5 *323:32 *3007:A1 12.59 
6 *323:32 *2991:A0 1.6 
7 *323:26 *3039:A1 1.6 
8 *323:22 *3023:A1 1.96 
*END

*D_NET *324 0.0225509
*CONN
*I *3041:A1 I *D sky130_fd_sc_hd__mux2_1
*I *3025:A1 I *D sky130_fd_sc_hd__mux2_1
*I *2993:A0 I *D sky130_fd_sc_hd__mux2_1
*I *3009:A1 I *D sky130_fd_sc_hd__mux2_1
*I *3251:X O *D sky130_fd_sc_hd__clkbuf_2
*CAP
1 *3041:A1 0.000222773
2 *3025:A1 0
3 *2993:A0 0.000229074
4 *3009:A1 0.000339385
5 *3251:X 0.00132154
6 *324:44 0.0010082
7 *324:31 0.00203222
8 *324:10 0.00453684
9 *324:8 0.00450127
10 *2993:A0 *348:18 0.00017092
11 *3009:A1 *2957:A1 0.000248699
12 *3009:A1 *3116:RESET_B 0.000236454
13 *3009:A1 *402:31 0.000274952
14 *3009:A1 *425:73 9.30717e-05
15 *3041:A1 *2922:A2 2.54692e-05
16 *3041:A1 *2943:A2 0
17 *3041:A1 *3146:RESET_B 7.23602e-05
18 *3041:A1 *410:12 5.93757e-05
19 *324:8 *351:12 0.00113544
20 *324:8 *390:8 0.00284011
21 *324:10 *2880:A1 3.75018e-05
22 *324:10 *2901:A1 1.06761e-05
23 *324:10 *3055:A0 0.000600334
24 *324:10 *3055:A1 0
25 *324:31 *2957:A0 7.45302e-05
26 *324:31 *426:23 0.000100536
27 *324:44 *348:18 0.000502552
28 *2881:B1 *324:10 0.00061166
29 *2900:B1 *324:10 0
30 *2902:B1 *324:31 0
31 *2906:B *3009:A1 0.000342178
32 *2906:B *324:10 0
33 *2906:B *324:31 0
34 *2906:D *3009:A1 0.000108948
35 *2926:C *324:44 0.00019038
36 *2946:A *3041:A1 5.13155e-05
37 *2946:B *3041:A1 0
38 *3010:A *3009:A1 0.000232571
39 *3087:S *324:10 0
40 *3137:D *324:10 0.000113222
41 *3138:CLK *324:10 0
42 *3138:D *324:31 0.000182349
43 *3267:A *324:8 4.40028e-05
44 *279:22 *324:10 0
45 *296:10 *324:10 0
46 *320:8 *324:10 0
47 *320:8 *324:31 0
*RES
1 *3251:X *324:8 39.93 
2 *324:8 *324:10 55.695 
3 *324:10 *3009:A1 17.095 
4 *324:10 *324:31 19.19 
5 *324:31 *2993:A0 4.465 
6 *324:31 *324:44 14.225 
7 *324:44 *3025:A1 3.6 
8 *324:44 *3041:A1 7.785 
*END

*D_NET *325 0.0239816
*CONN
*I *3043:A1 I *D sky130_fd_sc_hd__mux2_1
*I *2995:A0 I *D sky130_fd_sc_hd__mux2_1
*I *3011:A1 I *D sky130_fd_sc_hd__mux2_1
*I *3027:A1 I *D sky130_fd_sc_hd__mux2_1
*I *3252:X O *D sky130_fd_sc_hd__clkbuf_2
*CAP
1 *3043:A1 0.000405816
2 *2995:A0 0.000225424
3 *3011:A1 0.000490448
4 *3027:A1 0
5 *3252:X 0.00104572
6 *325:41 0.00123903
7 *325:31 0.00129211
8 *325:20 0.00122137
9 *325:12 0.00312265
10 *325:8 0.00331013
11 *2995:A0 *2949:D 0.000257807
12 *2995:A0 *338:28 3.94429e-05
13 *3011:A1 *2963:A1 0.000315527
14 *3011:A1 *3011:A0 4.99619e-05
15 *3011:A1 *343:57 1.85674e-05
16 *3043:A1 *3043:A0 3.26889e-05
17 *3043:A1 *338:28 6.57171e-05
18 *3043:A1 *419:6 1.83847e-05
19 *3043:A1 *419:17 1.98666e-05
20 *325:8 *326:12 0.00203061
21 *325:8 *327:8 8.65905e-05
22 *325:12 *326:12 0
23 *325:12 *326:14 0
24 *325:12 *339:38 0.000249038
25 *325:12 *340:22 0.00086527
26 *325:12 *412:19 5.20968e-05
27 *325:20 *2980:A0 0.000314452
28 *325:20 *3144:RESET_B 8.08153e-06
29 *325:20 *339:38 8.86009e-06
30 *325:20 *339:81 0.000126497
31 *325:20 *339:91 9.84967e-05
32 *325:20 *340:8 0.00171328
33 *325:20 *340:22 0.000568865
34 *325:31 *3027:A0 0.000453993
35 *325:41 *2910:A1 1.32026e-05
36 *325:41 *2985:A0 0.000160635
37 *325:41 *3027:A0 6.38806e-05
38 *325:41 *427:96 0.000136116
39 *2909:B1 *3043:A1 2.46007e-05
40 *2910:B1 *3043:A1 9.67888e-05
41 *2910:B1 *325:31 9.50342e-06
42 *2910:B1 *325:41 0.000123225
43 *2911:B1 *325:12 0
44 *2917:A *325:31 8.33066e-06
45 *2930:B1 *3043:A1 0
46 *2947:C *2995:A0 0.000580311
47 *2948:A *2995:A0 4.82919e-05
48 *2985:S *325:41 4.00541e-06
49 *3012:A *3011:A1 4.82919e-05
50 *3027:S *325:20 0.00039712
51 *3038:A *325:20 7.4027e-05
52 *3102:A *325:20 0
53 *3126:D *3043:A1 6.43623e-05
54 *3160:CLK *3011:A1 0.000337517
55 *3180:D *325:12 4.4073e-05
56 *3184:D *325:20 0
57 *3188:CLK *325:12 0.000183036
58 *202:44 *2995:A0 8.98826e-05
59 *202:44 *3011:A1 0.000308086
60 *203:25 *325:20 0.00086736
61 *206:61 *2995:A0 0
62 *206:61 *3011:A1 0
63 *207:137 *3043:A1 1.94892e-05
64 *207:137 *325:31 2.14527e-05
65 *207:149 *3043:A1 5.03515e-05
66 *276:70 *325:31 0
67 *307:10 *325:12 0
68 *318:24 *325:41 0.000460901
*RES
1 *3252:X *325:8 27.165 
2 *325:8 *325:12 45.4425 
3 *325:12 *325:20 34.7825 
4 *325:20 *3027:A1 1.6 
5 *325:20 *325:31 7.115 
6 *325:31 *325:41 14.485 
7 *325:41 *3011:A1 16.11 
8 *325:41 *2995:A0 11.535 
9 *325:31 *3043:A1 10.485 
*END

*D_NET *326 0.0137725
*CONN
*I *3029:A1 I *D sky130_fd_sc_hd__mux2_1
*I *2997:A0 I *D sky130_fd_sc_hd__mux2_1
*I *3013:A1 I *D sky130_fd_sc_hd__mux2_1
*I *3045:A1 I *D sky130_fd_sc_hd__mux2_1
*I *3253:X O *D sky130_fd_sc_hd__clkbuf_2
*CAP
1 *3029:A1 0.000179465
2 *2997:A0 0.000137216
3 *3013:A1 0
4 *3045:A1 0
5 *3253:X 0.00147512
6 *326:43 0.00109458
7 *326:22 0.00152333
8 *326:14 0.00224272
9 *326:12 0.0029724
10 *2997:A0 *3013:A0 4.82863e-05
11 *2997:A0 *3200:A 7.60965e-05
12 *2997:A0 *339:20 2.88519e-05
13 *2997:A0 *428:42 0.0001249
14 *3029:A1 *340:22 0.000208032
15 *326:14 *340:22 0.000452862
16 *326:22 *2931:A2 3.83041e-05
17 *326:22 *3156:RESET_B 0.000116497
18 *326:22 *420:8 0.000141253
19 *326:22 *420:21 7.66083e-05
20 *326:43 *2931:A2 0.000238919
21 *326:43 *3013:A0 4.99619e-05
22 *2998:A *2997:A0 8.53113e-06
23 *3014:A *326:43 0.000164874
24 *3132:D *326:43 0.000101541
25 *3140:D *326:43 0.000179297
26 *3156:D *3029:A1 1.01661e-05
27 *3156:D *326:14 2.67022e-05
28 *3254:A *326:12 8.53113e-06
29 *203:60 *326:43 1.68057e-05
30 *274:10 *3029:A1 0
31 *274:12 *3029:A1 0
32 *274:16 *3029:A1 0
33 *274:16 *326:14 0
34 *325:8 *326:12 0.00203061
35 *325:12 *326:12 0
36 *325:12 *326:14 0
*RES
1 *3253:X *326:12 31.4625 
2 *326:12 *326:14 27.6525 
3 *326:14 *326:22 9.47 
4 *326:22 *3045:A1 1.6 
5 *326:22 *326:43 19.66 
6 *326:43 *3013:A1 1.6 
7 *326:43 *2997:A0 8.675 
8 *326:14 *3029:A1 7.785 
*END

*D_NET *327 0.0202982
*CONN
*I *3031:A1 I *D sky130_fd_sc_hd__mux2_1
*I *3047:A1 I *D sky130_fd_sc_hd__mux2_1
*I *2999:A0 I *D sky130_fd_sc_hd__mux2_1
*I *3015:A1 I *D sky130_fd_sc_hd__mux2_1
*I *3254:X O *D sky130_fd_sc_hd__clkbuf_2
*CAP
1 *3031:A1 7.3534e-05
2 *3047:A1 0.000387296
3 *2999:A0 0.000101909
4 *3015:A1 1.41866e-05
5 *3254:X 0.00214914
6 *327:31 0.000686705
7 *327:27 0.000812127
8 *327:10 0.0043354
9 *327:8 0.00592926
10 *2999:A0 *3133:RESET_B 0
11 *2999:A0 *429:67 0
12 *3015:A1 *3015:A0 8.65905e-05
13 *3031:A1 *3031:A0 4.82863e-05
14 *3047:A1 *3047:A0 0.000507048
15 *3047:A1 *3133:RESET_B 0
16 *3047:A1 *342:71 0
17 *3047:A1 *427:32 0.000732634
18 *3047:A1 *429:67 0
19 *327:8 *390:14 0.00161876
20 *327:10 *2875:A2 0
21 *327:10 *2915:A2 0
22 *327:10 *2935:A1 0
23 *327:10 *2949:A 0.000196789
24 *327:10 *2965:A0 0.00010004
25 *327:10 *2965:A1 7.12714e-05
26 *327:10 *3001:A1 0
27 *327:10 *3049:A1 0
28 *327:10 *3182:RESET_B 0.00010596
29 *327:10 *332:33 0
30 *327:10 *336:10 0
31 *327:10 *345:106 5.56629e-05
32 *327:10 *398:23 0
33 *327:10 *430:14 1.52862e-05
34 *327:27 *2949:A 0.000379972
35 *327:27 *3269:A 0.000636911
36 *327:27 *335:10 2.05571e-05
37 *2878:B1 *2999:A0 0
38 *2878:B1 *327:27 0.00011341
39 *2888:A *327:27 0.000136292
40 *2907:A *327:10 0
41 *2907:B *327:10 0
42 *2916:B1 *327:10 0
43 *2935:B1 *327:10 0
44 *2946:A *3047:A1 2.75145e-05
45 *2966:A *327:10 7.4027e-05
46 *3032:A *327:31 0.000205372
47 *3122:CLK *327:10 0.000173973
48 *3122:D *327:10 9.71067e-05
49 *3166:D *327:10 4.61658e-05
50 *3182:D *327:10 6.14776e-05
51 *3190:CLK *327:10 0
52 *3241:A *327:10 0
53 *3257:A *327:8 0.000124384
54 *163:34 *3015:A1 8.65905e-05
55 *325:8 *327:8 8.65905e-05
*RES
1 *3254:X *327:8 42.69 
2 *327:8 *327:10 63.6 
3 *327:10 *3015:A1 4.395 
4 *327:10 *327:27 16.685 
5 *327:27 *327:31 5.9 
6 *327:31 *2999:A0 5.235 
7 *327:31 *3047:A1 13.935 
8 *327:27 *3031:A1 2.74 
*END

*D_NET *328 0.0172551
*CONN
*I *3017:A1 I *D sky130_fd_sc_hd__mux2_1
*I *3033:A1 I *D sky130_fd_sc_hd__mux2_1
*I *3001:A0 I *D sky130_fd_sc_hd__mux2_1
*I *3049:A1 I *D sky130_fd_sc_hd__mux2_1
*I *3255:X O *D sky130_fd_sc_hd__clkbuf_2
*CAP
1 *3017:A1 6.24518e-05
2 *3033:A1 0
3 *3001:A0 0.000308331
4 *3049:A1 0.000321325
5 *3255:X 0.00359025
6 *328:24 0.000656455
7 *328:20 0.000616723
8 *328:14 0.00277575
9 *328:10 0.00571362
10 *3001:A0 *3001:A1 4.71087e-05
11 *3001:A0 *430:26 0.00018012
12 *3001:A0 *430:30 0.00010219
13 *3017:A1 *406:25 0.000193395
14 *3049:A1 *2915:A2 0.000162325
15 *3049:A1 *2935:A1 0.000157595
16 *3049:A1 *2936:A2 0.000183036
17 *3049:A1 *341:49 0
18 *3049:A1 *341:65 0
19 *3049:A1 *422:12 6.17895e-06
20 *3049:A1 *430:30 7.81954e-05
21 *328:14 *2895:A2 7.23533e-05
22 *328:14 *345:38 0
23 *328:14 *345:106 0
24 *328:14 *406:25 0.000209179
25 *328:24 *414:14 4.66108e-05
26 *2916:B1 *3001:A0 8.26195e-05
27 *2916:B1 *3049:A1 1.07797e-05
28 *3018:A *328:20 0.00034356
29 *3055:S *328:14 0.00010301
30 *3174:D *328:14 4.70343e-05
31 *195:33 *3001:A0 8.46818e-05
32 *195:48 *3001:A0 4.77769e-05
33 *198:33 *328:14 0
34 *203:60 *328:20 1.93437e-05
35 *203:60 *328:24 8.49205e-05
36 *203:71 *328:20 0.000291658
37 *278:8 *328:20 0.000104892
38 *278:20 *328:14 0
39 *278:28 *328:14 0
40 *320:25 *3017:A1 0.000111235
41 *320:25 *328:14 0.000401732
42 *320:31 *328:14 3.86607e-05
43 *327:10 *3049:A1 0
*RES
1 *3255:X *328:10 48.055 
2 *328:10 *328:14 41.12 
3 *328:14 *328:20 12.38 
4 *328:20 *328:24 2.795 
5 *328:24 *3049:A1 9.54 
6 *328:24 *3001:A0 10.965 
7 *328:20 *3033:A1 1.6 
8 *328:14 *3017:A1 6 
*END

*D_NET *329 0.0102147
*CONN
*I *2972:B I *D sky130_fd_sc_hd__and3b_1
*I *2967:B I *D sky130_fd_sc_hd__or3b_1
*I *2982:B I *D sky130_fd_sc_hd__and3_1
*I *2977:A_N I *D sky130_fd_sc_hd__and3b_1
*I *3256:X O *D sky130_fd_sc_hd__buf_1
*CAP
1 *2972:B 0.000292053
2 *2967:B 0
3 *2982:B 8.60776e-05
4 *2977:A_N 0
5 *3256:X 0.00316948
6 *329:30 0.000320905
7 *329:21 0.000219032
8 *329:10 0.0013623
9 *329:8 0.00442768
10 *2972:B *2972:A_N 0.000109939
11 *2972:B *330:18 6.05513e-05
12 *2972:B *340:30 5.05437e-05
13 *2982:B *340:30 5.49555e-05
14 *329:21 *2977:C 2.66935e-05
15 *329:30 *340:30 2.75229e-05
16 *3188:D *2982:B 7.00889e-06
17 *202:10 *329:21 0
*RES
1 *3256:X *329:8 38.205 
2 *329:8 *329:10 21.015 
3 *329:10 *2977:A_N 3.6 
4 *329:10 *329:21 3.635 
5 *329:21 *2982:B 2.74 
6 *329:21 *329:30 0.45 
7 *329:30 *2967:B 1.6 
8 *329:30 *2972:B 5.5 
*END

*D_NET *330 0.00559625
*CONN
*I *2972:C I *D sky130_fd_sc_hd__and3b_1
*I *2977:B I *D sky130_fd_sc_hd__and3b_1
*I *2982:C I *D sky130_fd_sc_hd__and3_1
*I *2967:C_N I *D sky130_fd_sc_hd__or3b_1
*I *3257:X O *D sky130_fd_sc_hd__buf_1
*CAP
1 *2972:C 1.63287e-05
2 *2977:B 8.25084e-05
3 *2982:C 5.8441e-05
4 *2967:C_N 0
5 *3257:X 0.00197351
6 *330:20 0.000107244
7 *330:18 0.000211251
8 *330:16 0.00206977
9 *2977:B *2977:C 0.000116158
10 *2982:C *340:30 9.74844e-05
11 *330:18 *2972:A_N 0.000152328
12 *330:20 *2972:A_N 4.66108e-05
13 *330:20 *340:30 0.000124895
14 *2968:A *2972:C 9.53428e-06
15 *2968:A *330:16 7.46749e-05
16 *2968:A *330:18 0.000141323
17 *2972:B *330:18 6.05513e-05
18 *2983:A *2982:C 4.82919e-05
19 *2983:A *330:20 4.60584e-05
20 *194:20 *330:16 0.000159285
21 *202:10 *2977:B 0
*RES
1 *3257:X *330:16 37.205 
2 *330:16 *330:18 2.865 
3 *330:18 *330:20 1.485 
4 *330:20 *2967:C_N 1.6 
5 *330:20 *2982:C 2.98 
6 *330:18 *2977:B 7.235 
7 *330:16 *2972:C 1.96 
*END

*D_NET *331 0.00566699
*CONN
*I *2951:A1 I *D sky130_fd_sc_hd__mux2_1
*I *3258:X O *D sky130_fd_sc_hd__buf_1
*CAP
1 *2951:A1 0.00232318
2 *3258:X 0.00232318
3 *2951:A1 *2951:A0 0.000465398
4 *3258:A *2951:A1 5.8286e-05
5 *319:10 *2951:A1 0.000496939
*RES
1 *3258:X *2951:A1 39.39 
*END

*D_NET *332 0.0298197
*CONN
*I *2961:S I *D sky130_fd_sc_hd__mux2_1
*I *2951:S I *D sky130_fd_sc_hd__mux2_1
*I *2959:S I *D sky130_fd_sc_hd__mux2_1
*I *2965:S I *D sky130_fd_sc_hd__mux2_1
*I *2953:S I *D sky130_fd_sc_hd__mux2_1
*I *2955:S I *D sky130_fd_sc_hd__mux2_1
*I *2957:S I *D sky130_fd_sc_hd__mux2_1
*I *2963:S I *D sky130_fd_sc_hd__mux2_1
*I *3259:X O *D sky130_fd_sc_hd__buf_4
*CAP
1 *2961:S 1.65033e-05
2 *2951:S 0.0020566
3 *2959:S 0
4 *2965:S 0
5 *2953:S 0
6 *2955:S 9.25015e-05
7 *2957:S 0
8 *2963:S 2.08101e-05
9 *3259:X 0.00209821
10 *332:97 0.00328452
11 *332:60 0.00069355
12 *332:49 0.0018807
13 *332:33 0.00160229
14 *332:29 0.00252307
15 *332:20 0.00229353
16 *332:10 0.0018235
17 *332:8 0.00260499
18 *2951:S *2951:A0 4.92062e-05
19 *2951:S *2959:A1 0.000185185
20 *2951:S *426:61 9.31543e-05
21 *2951:S *426:81 0.000393929
22 *2955:S *2953:A0 6.47594e-05
23 *2955:S *2955:A0 4.00541e-06
24 *332:10 *343:113 0.000903044
25 *332:10 *343:120 0.000664779
26 *332:20 *2963:A0 1.91597e-05
27 *332:20 *2963:A1 0.00118277
28 *332:20 *3271:A 0.000178473
29 *332:20 *343:57 1.6418e-05
30 *332:20 *343:113 0.00013521
31 *332:20 *428:16 2.11084e-05
32 *332:20 *428:27 6.18832e-05
33 *332:29 *2963:A0 0.000339686
34 *332:29 *343:37 3.0807e-05
35 *332:33 *2898:A2 1.65192e-05
36 *332:33 *2949:B 8.53743e-05
37 *332:33 *2965:A0 1.34361e-05
38 *332:33 *2965:A1 6.00871e-05
39 *332:33 *3141:RESET_B 0.000200799
40 *332:33 *429:31 5.64226e-05
41 *332:33 *429:55 0.00011153
42 *332:49 *2949:B 2.42236e-05
43 *332:49 *2955:A0 8.73389e-06
44 *332:49 *2965:A0 7.81954e-05
45 *332:49 *3138:RESET_B 2.32277e-05
46 *332:49 *336:10 5.21046e-05
47 *332:49 *402:16 0.000198339
48 *332:49 *424:28 0.000201811
49 *332:60 *2953:A0 6.36947e-05
50 *332:60 *2953:A1 4.99619e-05
51 *332:60 *2957:A0 8.77516e-05
52 *332:60 *2957:A1 3.26889e-05
53 *332:97 *2959:A1 4.66108e-05
54 *332:97 *348:30 5.18694e-05
55 *332:97 *348:70 0.000112284
56 *2886:A *332:97 0
57 *2886:B *332:97 0
58 *2887:C *332:97 0
59 *2906:B *332:49 0.000113797
60 *2906:D *2955:S 4.82919e-05
61 *2906:D *332:60 0.000381321
62 *2926:A *332:97 0.000387599
63 *2937:A *332:10 0.00100048
64 *2937:A *332:20 0.00024756
65 *2943:B1 *2951:S 4.92096e-05
66 *2946:B *2951:S 0
67 *2946:D *2951:S 0
68 *2952:A *2951:S 0.000130209
69 *2980:A1 *2961:S 2.49909e-05
70 *2994:A *332:97 2.12738e-05
71 *3009:S *332:33 0
72 *3010:A *332:60 7.47457e-05
73 *3047:S *332:10 0
74 *3138:D *332:49 8.71404e-05
75 *3139:CLK *2961:S 4.66108e-05
76 *3141:D *332:29 8.65905e-05
77 *195:69 *2955:S 6.28765e-05
78 *203:102 *332:33 0
79 *207:149 *332:10 0
80 *273:10 *332:33 1.00941e-05
81 *280:44 *332:97 0
82 *281:44 *2951:S 8.47455e-05
83 *281:72 *2951:S 5.21545e-05
84 *327:10 *332:33 0
*RES
1 *3259:X *332:8 34.41 
2 *332:8 *332:10 18.21 
3 *332:10 *332:20 23.765 
4 *332:20 *2963:S 1.96 
5 *332:20 *332:29 14.595 
6 *332:29 *332:33 10.01 
7 *332:33 *332:49 23.73 
8 *332:49 *2957:S 1.6 
9 *332:49 *332:60 11.685 
10 *332:60 *2955:S 8.045 
11 *332:60 *2953:S 1.6 
12 *332:33 *2965:S 3.6 
13 *332:29 *332:97 23.425 
14 *332:97 *2959:S 1.6 
15 *332:97 *2951:S 41.75 
16 *332:10 *2961:S 4.05 
*END

*D_NET *333 0.0162771
*CONN
*I *3208:A I *D sky130_fd_sc_hd__clkbuf_4
*I *3206:A I *D sky130_fd_sc_hd__clkbuf_4
*I *3205:A I *D sky130_fd_sc_hd__clkbuf_4
*I *3204:A I *D sky130_fd_sc_hd__clkbuf_2
*I *3260:X O *D sky130_fd_sc_hd__clkbuf_2
*CAP
1 *3208:A 0.00195792
2 *3206:A 2.37135e-05
3 *3205:A 0.000281588
4 *3204:A 0.00145331
5 *3260:X 0.000860178
6 *333:42 0.002341
7 *333:8 0.00291375
8 *333:6 0.0023984
9 *3204:A *2895:A1 4.99619e-05
10 *3204:A *3049:A0 4.99619e-05
11 *3204:A *3081:A0 0.000160314
12 *3204:A *341:10 0
13 *3204:A *341:49 0
14 *3204:A *422:12 0
15 *3204:A *422:21 6.6564e-05
16 *3206:A *346:16 2.68464e-05
17 *3208:A *346:16 2.49909e-05
18 *333:42 *346:29 0.000203988
19 *2880:B1 *3205:A 0
20 *3103:S *3205:A 1.83756e-05
21 *3104:A *3205:A 0
22 *207:43 *3204:A 0.00210846
23 *207:43 *333:8 0.00133781
24 *279:88 *3205:A 0
25 *323:12 *3208:A 0
*RES
1 *3260:X *333:6 13.435 
2 *333:6 *333:8 19.77 
3 *333:8 *3204:A 32.72 
4 *333:8 *3205:A 9.98 
5 *333:6 *333:42 10.735 
6 *333:42 *3206:A 2.05 
7 *333:42 *3208:A 36.785 
*END

*D_NET *334 0.000786188
*CONN
*I *3268:A I *D sky130_fd_sc_hd__clkbuf_4
*I *2950:X O *D sky130_fd_sc_hd__clkbuf_1
*CAP
1 *3268:A 0.000393094
2 *2950:X 0.000393094
*RES
1 *2950:X *3268:A 13.395 
*END

*D_NET *335 0.0101439
*CONN
*I *2949:A I *D sky130_fd_sc_hd__or4_1
*I *3269:A I *D sky130_fd_sc_hd__clkbuf_4
*I *2888:X O *D sky130_fd_sc_hd__buf_1
*CAP
1 *2949:A 0.000520497
2 *3269:A 0.00229274
3 *2888:X 7.4048e-05
4 *335:10 0.00288728
5 *2949:A *2949:B 0.000190761
6 *2949:A *2965:A1 4.93919e-05
7 *2949:A *2975:A0 0.000162311
8 *2949:A *3202:A 0
9 *2949:A *429:18 0.000245591
10 *2949:A *429:31 0.000149071
11 *2949:A *429:55 0.000559753
12 *3269:A *2918:A1 0.000123602
13 *3269:A *3165:RESET_B 0
14 *3269:A *427:32 5.00526e-05
15 *3269:A *429:55 0.000248176
16 *3269:A *429:109 6.97526e-05
17 *2878:B1 *3269:A 0.000421766
18 *2888:A *335:10 3.03684e-05
19 *2907:A *2949:A 2.73058e-05
20 *2918:B1 *3269:A 0
21 *3016:A *2949:A 3.67779e-05
22 *3181:D *3269:A 0
23 *3232:A *3269:A 0
24 *3241:A *2949:A 0.000144635
25 *163:34 *2949:A 0.000108761
26 *199:118 *2949:A 0.000349592
27 *283:8 *2949:A 4.66108e-05
28 *292:8 *3269:A 0.000120845
29 *327:10 *2949:A 0.000196789
30 *327:27 *2949:A 0.000379972
31 *327:27 *3269:A 0.000636911
32 *327:27 *335:10 2.05571e-05
*RES
1 *2888:X *335:10 4.6275 
2 *335:10 *3269:A 49.9875 
3 *335:10 *2949:A 26.5525 
*END

*D_NET *336 0.0106517
*CONN
*I *2949:B I *D sky130_fd_sc_hd__or4_1
*I *3270:A I *D sky130_fd_sc_hd__clkbuf_4
*I *2908:X O *D sky130_fd_sc_hd__buf_1
*CAP
1 *2949:B 0.00101334
2 *3270:A 0
3 *2908:X 3.38648e-05
4 *336:10 0.00314819
5 *336:8 0.00419539
6 *2949:B *3202:A 0
7 *2949:B *429:18 3.81908e-06
8 *336:10 *2965:A0 0
9 *336:10 *3182:RESET_B 0
10 *336:10 *345:106 0
11 *336:10 *430:14 0
12 *2887:B *2949:B 0.000181361
13 *2908:A *336:8 4.82919e-05
14 *2915:B1 *336:10 0.000267521
15 *2949:A *2949:B 0.000190761
16 *3009:S *2949:B 2.97004e-06
17 *3122:CLK *336:10 0
18 *3166:D *336:10 0
19 *3228:A *336:10 0.000332816
20 *153:24 *2949:B 9.23864e-05
21 *199:118 *2949:B 7.23602e-05
22 *203:71 *336:10 0.000254956
23 *203:102 *2949:B 6.65606e-05
24 *203:102 *336:10 0.000518951
25 *278:10 *336:10 0
26 *278:16 *336:10 0
27 *283:8 *2949:B 6.64509e-05
28 *327:10 *336:10 0
29 *332:33 *2949:B 8.53743e-05
30 *332:49 *2949:B 2.42236e-05
31 *332:49 *336:10 5.21046e-05
*RES
1 *2908:X *336:8 4.05 
2 *336:8 *336:10 58.755 
3 *336:10 *3270:A 3.6 
4 *336:8 *2949:B 22.555 
*END

*D_NET *337 0.0110227
*CONN
*I *3271:A I *D sky130_fd_sc_hd__clkbuf_4
*I *2949:C I *D sky130_fd_sc_hd__or4_1
*I *2928:X O *D sky130_fd_sc_hd__buf_1
*CAP
1 *3271:A 0.00241841
2 *2949:C 0.00123009
3 *2928:X 0
4 *337:6 0.0036485
5 *2949:C *2975:A0 0.000184278
6 *3271:A *3120:RESET_B 2.65337e-05
7 *3271:A *3125:RESET_B 2.4756e-05
8 *3271:A *343:57 3.96653e-05
9 *3271:A *343:67 5.80887e-05
10 *3271:A *343:73 0.000160998
11 *3271:A *343:75 1.60203e-05
12 *2927:A *3271:A 0.000270598
13 *2947:B *2949:C 0.000277036
14 *2947:B *3271:A 0.000106655
15 *2975:S *2949:C 0.000152328
16 *2976:A *2949:C 0.00015639
17 *3011:S *2949:C 0.000122331
18 *3120:CLK *3271:A 0.000312964
19 *3120:D *3271:A 2.75229e-05
20 *3125:CLK *3271:A 4.9016e-05
21 *163:34 *2949:C 0.000506539
22 *199:118 *2949:C 4.42526e-05
23 *202:44 *2949:C 0.000502809
24 *206:61 *2949:C 0.000275369
25 *206:61 *3271:A 0.000116158
26 *276:27 *3271:A 2.41784e-05
27 *284:6 *3271:A 9.2741e-05
28 *332:20 *3271:A 0.000178473
*RES
1 *2928:X *337:6 3.6 
2 *337:6 *2949:C 28.74 
3 *337:6 *3271:A 40.155 
*END

*D_NET *338 0.0186944
*CONN
*I *2949:D I *D sky130_fd_sc_hd__or4_1
*I *3272:A I *D sky130_fd_sc_hd__clkbuf_4
*I *2948:X O *D sky130_fd_sc_hd__dlymetal6s2s_1
*CAP
1 *2949:D 0.00172032
2 *3272:A 0.00146906
3 *2948:X 1.77753e-05
4 *338:28 0.00481315
5 *338:6 0.00508219
6 *2949:D *2963:A0 5.00699e-05
7 *2949:D *2970:A1 0.000105849
8 *2949:D *2975:A0 8.57024e-05
9 *2949:D *3189:RESET_B 0
10 *2949:D *344:37 0
11 *3272:A *362:8 0
12 *338:28 *2909:A1 0.00019637
13 *338:28 *419:6 4.38278e-05
14 *2887:B *2949:D 0.000203762
15 *2909:B1 *338:28 3.86529e-05
16 *2947:B *338:28 6.92999e-05
17 *2947:C *2949:D 0.000200333
18 *2947:C *338:28 4.59113e-05
19 *2948:A *338:6 0
20 *2948:A *338:28 0.000127954
21 *2975:A1 *2949:D 0
22 *2995:A0 *2949:D 0.000257807
23 *2995:A0 *338:28 3.94429e-05
24 *2995:S *2949:D 0.000757985
25 *3000:A *2949:D 0.000116219
26 *3043:A1 *338:28 6.57171e-05
27 *3044:A *338:28 2.19562e-06
28 *3149:CLK *2949:D 0
29 *3155:CLK *338:28 0.000285127
30 *3209:A *338:28 4.99619e-05
31 *3245:A *3272:A 0
32 *163:34 *2949:D 8.40269e-05
33 *195:126 *2949:D 0
34 *285:8 *338:28 3.90815e-05
35 *318:14 *3272:A 0.00272665
*RES
1 *2948:X *338:6 1.96 
2 *338:6 *338:28 46.74 
3 *338:28 *3272:A 39.15 
4 *338:6 *2949:D 37.445 
*END

*D_NET *339 0.010847
*CONN
*I *3168:RESET_B I *D sky130_fd_sc_hd__dfrtp_1
*I *3136:RESET_B I *D sky130_fd_sc_hd__dfrtp_1
*I *3144:RESET_B I *D sky130_fd_sc_hd__dfrtp_1
*I *3184:RESET_B I *D sky130_fd_sc_hd__dfrtp_1
*I *3152:RESET_B I *D sky130_fd_sc_hd__dfrtp_1
*I *3156:RESET_B I *D sky130_fd_sc_hd__dfrtp_1
*I *3180:RESET_B I *D sky130_fd_sc_hd__dfrtp_1
*I *3188:RESET_B I *D sky130_fd_sc_hd__dfrtp_1
*I *3148:RESET_B I *D sky130_fd_sc_hd__dfrtp_1
*I *3140:RESET_B I *D sky130_fd_sc_hd__dfrtp_1
*I *3200:X O *D sky130_fd_sc_hd__clkbuf_4
*CAP
1 *3168:RESET_B 0.000116138
2 *3136:RESET_B 3.06332e-05
3 *3144:RESET_B 0.000296799
4 *3184:RESET_B 8.57065e-05
5 *3152:RESET_B 3.00517e-05
6 *3156:RESET_B 4.72758e-05
7 *3180:RESET_B 7.57148e-05
8 *3188:RESET_B 9.36182e-05
9 *3148:RESET_B 0.000149401
10 *3140:RESET_B 0.000188004
11 *3200:X 3.38751e-05
12 *339:113 0.00029299
13 *339:91 0.000505845
14 *339:81 0.000332551
15 *339:56 0.00056362
16 *339:54 0.000674652
17 *339:38 0.000746878
18 *339:26 0.00157363
19 *339:20 0.00160311
20 *339:8 0.000648692
21 *3148:RESET_B *2911:A2 5.83121e-06
22 *3156:RESET_B *420:8 1.08758e-05
23 *3168:RESET_B *424:58 1.55562e-05
24 *339:38 *412:19 9.54399e-05
25 *339:54 *2911:A2 0.000161837
26 *339:54 *2932:A2 0
27 *339:56 *3093:A1 0
28 *339:91 *3037:A0 0
29 *2911:B1 *339:38 0
30 *2911:B1 *339:54 0.000156155
31 *2911:B1 *339:56 0.000517447
32 *2997:A0 *339:20 2.88519e-05
33 *2998:A *339:20 4.5783e-05
34 *3013:S *339:20 0
35 *3038:A *3144:RESET_B 3.50033e-05
36 *3038:A *3184:RESET_B 1.85674e-05
37 *3038:A *339:91 5.53249e-06
38 *3045:S *339:38 0
39 *3045:S *339:54 4.91189e-05
40 *3046:A *339:56 3.86529e-05
41 *3140:D *3140:RESET_B 0
42 *3140:D *339:20 0
43 *3180:D *3188:RESET_B 0
44 *3180:D *339:56 0
45 *3184:D *3144:RESET_B 5.20968e-05
46 *3184:D *3184:RESET_B 4.80285e-05
47 *3184:D *339:91 4.13249e-05
48 *3188:CLK *3188:RESET_B 0
49 *207:22 *3140:RESET_B 0.000187752
50 *207:22 *339:8 4.82863e-05
51 *207:22 *339:20 8.53113e-06
52 *207:118 *339:38 0
53 *207:118 *339:91 0
54 *275:27 *3136:RESET_B 7.95914e-05
55 *275:70 *3140:RESET_B 8.07672e-05
56 *307:10 *3180:RESET_B 1.4389e-05
57 *307:10 *339:56 0.000116165
58 *322:16 *3144:RESET_B 0.000288777
59 *325:12 *339:38 0.000249038
60 *325:20 *3144:RESET_B 8.08153e-06
61 *325:20 *339:38 8.86009e-06
62 *325:20 *339:81 0.000126497
63 *325:20 *339:91 9.84967e-05
64 *326:22 *3156:RESET_B 0.000116497
*RES
1 *3200:X *339:8 4.05 
2 *339:8 *3140:RESET_B 5.9075 
3 *339:8 *339:20 6.99 
4 *339:20 *339:26 18.94 
5 *339:26 *339:38 9.845 
6 *339:38 *3148:RESET_B 2.0475 
7 *339:38 *339:54 6.77 
8 *339:54 *339:56 8.265 
9 *339:56 *3188:RESET_B 3.38 
10 *339:56 *3180:RESET_B 3.0875 
11 *339:54 *3156:RESET_B 3.0875 
12 *339:26 *339:81 3.93 
13 *339:81 *3152:RESET_B 2.3975 
14 *339:81 *339:91 2.91 
15 *339:91 *3184:RESET_B 3.4475 
16 *339:91 *3144:RESET_B 7.6625 
17 *339:20 *339:113 2.4 
18 *339:113 *3136:RESET_B 2.7425 
19 *339:113 *3168:RESET_B 3.7775 
*END

*D_NET *340 0.016052
*CONN
*I *2982:A I *D sky130_fd_sc_hd__and3_1
*I *2972:A_N I *D sky130_fd_sc_hd__and3b_1
*I *2967:A I *D sky130_fd_sc_hd__or3b_1
*I *2977:C I *D sky130_fd_sc_hd__and3b_1
*I *3261:X O *D sky130_fd_sc_hd__clkbuf_2
*CAP
1 *2982:A 0
2 *2972:A_N 3.82396e-05
3 *2967:A 0
4 *2977:C 0.000144059
5 *3261:X 0
6 *340:30 0.000301244
7 *340:22 0.00171046
8 *340:8 0.00494783
9 *340:6 0.00335632
10 *340:8 *3155:RESET_B 0
11 *340:8 *343:85 0
12 *340:8 *408:10 0
13 *340:8 *408:23 0
14 *2972:B *2972:A_N 0.000109939
15 *2972:B *340:30 5.05437e-05
16 *2977:B *2977:C 0.000116158
17 *2978:A *2977:C 2.34602e-05
18 *2982:B *340:30 5.49555e-05
19 *2982:C *340:30 9.74844e-05
20 *3027:S *340:8 2.72517e-05
21 *3029:A1 *340:22 0.000208032
22 *3044:A *340:8 0.000143266
23 *3152:D *340:22 0
24 *3155:D *340:8 2.46089e-05
25 *3176:CLK *340:8 0
26 *3176:D *340:8 6.28765e-05
27 *3184:CLK *340:22 0.000164686
28 *3188:D *340:22 0.000403952
29 *3188:D *340:30 8.8266e-05
30 *203:14 *340:8 0
31 *203:14 *340:22 0
32 *274:10 *340:22 0
33 *325:12 *340:22 0.00086527
34 *325:20 *340:8 0.00171328
35 *325:20 *340:22 0.000568865
36 *326:14 *340:22 0.000452862
37 *329:21 *2977:C 2.66935e-05
38 *329:30 *340:30 2.75229e-05
39 *330:18 *2972:A_N 0.000152328
40 *330:20 *2972:A_N 4.66108e-05
41 *330:20 *340:30 0.000124895
*RES
1 *3261:X *340:6 3.6 
2 *340:6 *340:8 64.4925 
3 *340:8 *340:22 37.4975 
4 *340:22 *340:30 3.69 
5 *340:30 *2977:C 8.555 
6 *340:30 *2967:A 1.6 
7 *340:30 *2972:A_N 3.43 
8 *340:22 *2982:A 1.6 
*END

*D_NET *341 0.0118281
*CONN
*I *3128:RESET_B I *D sky130_fd_sc_hd__dfrtp_1
*I *3134:RESET_B I *D sky130_fd_sc_hd__dfrtp_1
*I *3150:RESET_B I *D sky130_fd_sc_hd__dfrtp_1
*I *3132:RESET_B I *D sky130_fd_sc_hd__dfrtp_1
*I *3158:RESET_B I *D sky130_fd_sc_hd__dfrtp_1
*I *3172:RESET_B I *D sky130_fd_sc_hd__dfrtp_1
*I *3164:RESET_B I *D sky130_fd_sc_hd__dfrtp_1
*I *3201:X O *D sky130_fd_sc_hd__buf_2
*CAP
1 *3128:RESET_B 0.00088899
2 *3134:RESET_B 0.00123088
3 *3150:RESET_B 3.89869e-05
4 *3132:RESET_B 0.000661064
5 *3158:RESET_B 0
6 *3172:RESET_B 0.000150072
7 *3164:RESET_B 0.000897296
8 *3201:X 0.000258158
9 *341:65 0.000597688
10 *341:49 0.00101021
11 *341:10 0.000968356
12 *341:8 0.000611618
13 *3132:RESET_B *2871:A1 3.17194e-05
14 *3132:RESET_B *2871:A2 0.000161526
15 *3132:RESET_B *2891:A2 2.26717e-05
16 *3132:RESET_B *396:12 1.03423e-05
17 *3134:RESET_B *414:14 0
18 *3172:RESET_B *3077:A0 3.39064e-05
19 *341:8 *3201:A 6.96579e-05
20 *341:8 *344:12 4.98051e-05
21 *341:10 *422:12 0
22 *341:49 *2936:A2 0
23 *341:49 *422:12 0
24 *341:65 *414:14 0
25 *341:65 *430:30 0
26 *2891:B1 *3172:RESET_B 0.000159045
27 *2897:A *3128:RESET_B 0.000101325
28 *2897:B *3128:RESET_B 9.12494e-06
29 *2897:C *3128:RESET_B 5.83121e-06
30 *2897:D *3128:RESET_B 0.000207127
31 *2897:D *3134:RESET_B 0.000433175
32 *2936:B1 *341:49 4.18603e-06
33 *2936:B1 *341:65 5.92849e-05
34 *2937:D *3128:RESET_B 4.51129e-05
35 *2937:D *3134:RESET_B 0
36 *2937:D *341:65 0
37 *3034:A *341:65 0
38 *3049:A1 *341:49 0
39 *3049:A1 *341:65 0
40 *3050:A *341:10 9.50342e-06
41 *3050:A *341:49 6.45236e-05
42 *3055:S *3164:RESET_B 4.5168e-05
43 *3065:S *3128:RESET_B 4.11729e-05
44 *3065:S *3134:RESET_B 9.10613e-05
45 *3128:D *3128:RESET_B 4.82863e-05
46 *3134:CLK *3128:RESET_B 8.74126e-05
47 *3158:D *341:10 0
48 *3164:CLK *3164:RESET_B 8.40269e-05
49 *3164:D *3172:RESET_B 0
50 *3190:CLK *3164:RESET_B 0
51 *3191:A *3134:RESET_B 0.00010784
52 *3204:A *341:10 0
53 *3204:A *341:49 0
54 *3215:A *3172:RESET_B 0.000164874
55 *153:24 *3134:RESET_B 0.000186934
56 *194:93 *3128:RESET_B 3.06284e-05
57 *195:100 *3128:RESET_B 0
58 *203:60 *3150:RESET_B 4.82863e-05
59 *206:150 *3164:RESET_B 0.000240772
60 *207:22 *3132:RESET_B 0.00149887
61 *207:43 *3132:RESET_B 0
62 *275:31 *3128:RESET_B 0.000173868
63 *275:47 *3172:RESET_B 0.000187738
*RES
1 *3201:X *341:8 6.81 
2 *341:8 *341:10 3.165 
3 *341:10 *3164:RESET_B 13.4825 
4 *3164:RESET_B *3172:RESET_B 8.5525 
5 *341:10 *3158:RESET_B 2 
6 *341:8 *341:49 2.145 
7 *341:49 *3132:RESET_B 17.1875 
8 *341:49 *341:65 3.675 
9 *341:65 *3150:RESET_B 2.7575 
10 *341:65 *3134:RESET_B 9.755 
11 *3134:RESET_B *3128:RESET_B 17.395 
*END

*D_NET *342 0.0153572
*CONN
*I *3163:RESET_B I *D sky130_fd_sc_hd__dfrtp_1
*I *3131:RESET_B I *D sky130_fd_sc_hd__dfrtp_1
*I *3165:RESET_B I *D sky130_fd_sc_hd__dfrtp_1
*I *3149:RESET_B I *D sky130_fd_sc_hd__dfrtp_1
*I *3133:RESET_B I *D sky130_fd_sc_hd__dfrtp_1
*I *3157:RESET_B I *D sky130_fd_sc_hd__dfrtp_1
*I *3123:RESET_B I *D sky130_fd_sc_hd__dfrtp_1
*I *3121:RESET_B I *D sky130_fd_sc_hd__dfrtp_4
*I *3160:RESET_B I *D sky130_fd_sc_hd__dfrtp_1
*I *3124:RESET_B I *D sky130_fd_sc_hd__dfrtp_1
*I *3202:X O *D sky130_fd_sc_hd__clkbuf_4
*CAP
1 *3163:RESET_B 0.000310708
2 *3131:RESET_B 0.000141911
3 *3165:RESET_B 0.000603336
4 *3149:RESET_B 0
5 *3133:RESET_B 0.000174526
6 *3157:RESET_B 0.000929209
7 *3123:RESET_B 0
8 *3121:RESET_B 0.000401507
9 *3160:RESET_B 0.000684209
10 *3124:RESET_B 8.4823e-05
11 *3202:X 0.000621607
12 *342:98 0.00131641
13 *342:71 0.000459524
14 *342:69 0.00181754
15 *342:56 0.00136075
16 *342:49 0.000812306
17 *342:24 0.000891083
18 *342:10 0.000827142
19 *3121:RESET_B *344:37 5.46877e-05
20 *3163:RESET_B *3059:A0 0
21 *3165:RESET_B *3111:A0 0
22 *342:10 *3202:A 0.000160125
23 *342:10 *344:37 9.47454e-05
24 *342:24 *344:37 8.49485e-05
25 *342:69 *2938:A1 7.35813e-05
26 *342:69 *2938:A2 1.03423e-05
27 *342:69 *421:6 0.000103109
28 *342:71 *2938:A1 0
29 *342:71 *429:67 0
30 *2873:B1 *3160:RESET_B 4.88478e-05
31 *2877:A *342:49 0.000334617
32 *2877:A *342:56 0.000321297
33 *2878:B1 *3133:RESET_B 0
34 *2878:B1 *3165:RESET_B 0
35 *2878:B1 *342:71 0
36 *2889:B1 *342:56 0
37 *2889:B1 *342:98 0
38 *2917:D *3160:RESET_B 1.6586e-05
39 *2938:B1 *3165:RESET_B 0
40 *2938:B1 *342:69 1.19928e-05
41 *2938:B1 *342:71 0
42 *2939:B1 *342:71 0
43 *2995:S *342:56 0.000194043
44 *2996:A *3131:RESET_B 0.000229203
45 *2999:A0 *3133:RESET_B 0
46 *3011:S *3121:RESET_B 0.000162325
47 *3011:S *342:49 4.1235e-05
48 *3047:A1 *3133:RESET_B 0
49 *3047:A1 *342:71 0
50 *3111:A1 *3165:RESET_B 0
51 *3131:CLK *3131:RESET_B 0
52 *3157:D *342:56 0
53 *3163:D *3163:RESET_B 9.54399e-05
54 *3269:A *3165:RESET_B 0
55 *153:24 *3124:RESET_B 8.92366e-05
56 *153:24 *3160:RESET_B 0.000249323
57 *153:24 *342:24 6.26945e-05
58 *194:108 *3131:RESET_B 0.000133938
59 *194:108 *3163:RESET_B 9.78734e-05
60 *194:125 *3165:RESET_B 0
61 *195:115 *3121:RESET_B 0.000266618
62 *195:115 *342:49 0.000379862
63 *195:126 *342:49 7.84667e-05
64 *195:126 *342:56 0.000176137
65 *199:102 *342:10 9.37731e-05
66 *199:102 *342:24 9.27921e-05
67 *277:90 *342:69 0
68 *277:103 *3131:RESET_B 0
69 *277:103 *3163:RESET_B 0
70 *287:6 *3160:RESET_B 0.000162764
71 *292:8 *3165:RESET_B 0
*RES
1 *3202:X *342:10 11.385 
2 *342:10 *3124:RESET_B 3.4325 
3 *342:10 *342:24 4.265 
4 *342:24 *3160:RESET_B 8.8575 
5 *342:24 *3121:RESET_B 7.165 
6 *3121:RESET_B *342:49 10.1825 
7 *342:49 *3123:RESET_B 2 
8 *342:49 *342:56 12.345 
9 *342:56 *3157:RESET_B 2 
10 *3157:RESET_B *342:69 13.2125 
11 *342:69 *342:71 4.44 
12 *342:71 *3133:RESET_B 4.655 
13 *342:71 *3149:RESET_B 2 
14 *342:69 *3165:RESET_B 11.285 
15 *342:56 *342:98 13.51 
16 *342:98 *3131:RESET_B 5.93 
17 *342:98 *3163:RESET_B 7.8725 
*END

*D_NET *343 0.0163487
*CONN
*I *3187:RESET_B I *D sky130_fd_sc_hd__dfrtp_1
*I *3179:RESET_B I *D sky130_fd_sc_hd__dfrtp_1
*I *3126:RESET_B I *D sky130_fd_sc_hd__dfrtp_1
*I *3176:RESET_B I *D sky130_fd_sc_hd__dfrtp_1
*I *3155:RESET_B I *D sky130_fd_sc_hd__dfrtp_1
*I *3147:RESET_B I *D sky130_fd_sc_hd__dfrtp_1
*I *3125:RESET_B I *D sky130_fd_sc_hd__dfrtp_1
*I *3120:RESET_B I *D sky130_fd_sc_hd__dfrtp_4
*I *3139:RESET_B I *D sky130_fd_sc_hd__dfrtp_1
*I *3202:A I *D sky130_fd_sc_hd__clkbuf_4
*I *3203:X O *D sky130_fd_sc_hd__clkbuf_4
*CAP
1 *3187:RESET_B 0.000169755
2 *3179:RESET_B 0
3 *3126:RESET_B 0
4 *3176:RESET_B 0.000192499
5 *3155:RESET_B 0.000109321
6 *3147:RESET_B 4.9332e-05
7 *3125:RESET_B 2.82813e-05
8 *3120:RESET_B 6.18621e-06
9 *3139:RESET_B 4.39367e-06
10 *3202:A 0.000394645
11 *3203:X 3.10762e-05
12 *343:120 0.000550418
13 *343:113 0.000708537
14 *343:85 0.000447854
15 *343:75 0.00035032
16 *343:73 0.0007107
17 *343:67 0.00096994
18 *343:57 0.000855092
19 *343:37 0.0018784
20 *343:10 0.00160752
21 *3202:A *3189:RESET_B 2.38193e-05
22 *3202:A *429:18 0.000136798
23 *343:37 *2963:A0 0.000380529
24 *343:37 *2963:A1 4.43682e-05
25 *343:37 *3189:RESET_B 0.000115158
26 *343:57 *2963:A1 0.000164874
27 *343:57 *428:16 4.82919e-05
28 *343:113 *427:96 0.000207092
29 *343:113 *428:27 9.37731e-05
30 *343:120 *427:78 8.34348e-05
31 *343:120 *427:96 7.55391e-05
32 *2877:A *343:37 3.86607e-05
33 *2887:A *3202:A 0
34 *2887:A *343:10 9.26907e-06
35 *2887:A *343:37 0
36 *2887:B *3202:A 0
37 *2897:A *343:37 7.4027e-05
38 *2917:A *3176:RESET_B 0
39 *2947:B *343:113 0
40 *2949:A *3202:A 0
41 *2949:B *3202:A 0
42 *2971:A *343:37 1.37328e-05
43 *3011:A1 *343:57 1.85674e-05
44 *3016:A *3202:A 0
45 *3027:S *3176:RESET_B 6.0236e-05
46 *3027:S *343:85 0.000859743
47 *3120:CLK *3176:RESET_B 2.92496e-05
48 *3120:CLK *343:73 0.000264677
49 *3120:CLK *343:75 4.66108e-05
50 *3120:CLK *343:85 2.92496e-05
51 *3120:D *343:73 4.66108e-05
52 *3147:CLK *3147:RESET_B 7.00685e-05
53 *3160:CLK *343:57 7.23533e-05
54 *3179:D *3187:RESET_B 0
55 *3220:A *3176:RESET_B 3.47837e-05
56 *3271:A *3120:RESET_B 2.65337e-05
57 *3271:A *3125:RESET_B 2.4756e-05
58 *3271:A *343:57 3.96653e-05
59 *3271:A *343:67 5.80887e-05
60 *3271:A *343:73 0.000160998
61 *3271:A *343:75 1.60203e-05
62 *153:24 *3202:A 8.37714e-05
63 *203:25 *3176:RESET_B 7.45794e-05
64 *206:61 *3187:RESET_B 0
65 *206:61 *343:120 0
66 *276:10 *343:85 0.000224071
67 *276:12 *343:85 0.000133068
68 *276:27 *3125:RESET_B 7.69078e-05
69 *276:27 *343:75 4.66108e-05
70 *276:70 *3155:RESET_B 8.53113e-06
71 *276:70 *343:85 0.000649255
72 *276:86 *3155:RESET_B 0
73 *318:28 *343:113 0.000329316
74 *318:55 *3139:RESET_B 1.86458e-05
75 *318:55 *343:37 0.000286196
76 *318:55 *343:57 7.55111e-05
77 *332:10 *343:113 0.000903044
78 *332:10 *343:120 0.000664779
79 *332:20 *343:57 1.6418e-05
80 *332:20 *343:113 0.00013521
81 *332:29 *343:37 3.0807e-05
82 *340:8 *3155:RESET_B 0
83 *340:8 *343:85 0
84 *342:10 *3202:A 0.000160125
*RES
1 *3203:X *343:10 4.2825 
2 *343:10 *3202:A 11.1825 
3 *343:10 *343:37 24.4575 
4 *343:37 *3139:RESET_B 0.3975 
5 *343:37 *343:57 13.735 
6 *343:57 *3120:RESET_B 0.3975 
7 *343:57 *343:67 2.19 
8 *343:67 *343:73 7.125 
9 *343:73 *343:75 0.795 
10 *343:75 *3125:RESET_B 0.7425 
11 *343:75 *343:85 14.09 
12 *343:85 *3147:RESET_B 3.0875 
13 *343:85 *3155:RESET_B 3.635 
14 *343:73 *3176:RESET_B 8.185 
15 *343:67 *343:113 14.09 
16 *343:113 *3126:RESET_B 2 
17 *343:113 *343:120 9.54 
18 *343:120 *3179:RESET_B 2 
19 *343:120 *3187:RESET_B 4.91 
*END

*D_NET *344 0.0152378
*CONN
*I *3201:A I *D sky130_fd_sc_hd__buf_2
*I *3203:A I *D sky130_fd_sc_hd__clkbuf_4
*I *3171:RESET_B I *D sky130_fd_sc_hd__dfrtp_1
*I *3189:RESET_B I *D sky130_fd_sc_hd__dfrtp_1
*I *3200:A I *D sky130_fd_sc_hd__clkbuf_4
*I *3204:X O *D sky130_fd_sc_hd__clkbuf_2
*CAP
1 *3201:A 8.4844e-05
2 *3203:A 2.1118e-05
3 *3171:RESET_B 0.000167314
4 *3189:RESET_B 0.00207664
5 *3200:A 0.000683157
6 *3204:X 0
7 *344:37 0.00319219
8 *344:12 0.0026675
9 *344:4 0.000807438
10 *3171:RESET_B *389:32 0.000271003
11 *3189:RESET_B *2938:A1 0
12 *3189:RESET_B *2963:A0 0.000183043
13 *3189:RESET_B *3111:A0 5.83121e-06
14 *3189:RESET_B *421:14 3.68682e-05
15 *3189:RESET_B *429:18 3.09233e-05
16 *3189:RESET_B *429:67 0
17 *3200:A *2872:A2 0.000234086
18 *3200:A *2997:A1 4.09662e-05
19 *3200:A *3013:A0 3.93101e-05
20 *3200:A *396:21 2.17931e-05
21 *3200:A *428:42 2.10673e-05
22 *2877:B *3200:A 4.97915e-05
23 *2877:B *344:37 0.00065997
24 *2887:A *3189:RESET_B 0
25 *2887:B *3203:A 1.83847e-05
26 *2887:B *344:37 4.38278e-05
27 *2897:B *3200:A 2.20732e-05
28 *2938:B1 *3189:RESET_B 0
29 *2949:D *3189:RESET_B 0
30 *2949:D *344:37 0
31 *2975:A1 *344:37 0
32 *2997:A0 *3200:A 7.60965e-05
33 *2997:S *3200:A 0.000123955
34 *2998:A *3200:A 4.80285e-05
35 *3011:S *344:37 0.000206824
36 *3032:A *3189:RESET_B 0.000143266
37 *3050:A *344:12 8.8266e-05
38 *3112:A *3189:RESET_B 0
39 *3121:RESET_B *344:37 5.46877e-05
40 *3128:CLK *344:37 0.000180354
41 *3150:D *344:37 0
42 *3158:D *344:12 5.05521e-05
43 *3165:CLK *3171:RESET_B 0.000178794
44 *3165:D *3189:RESET_B 5.84378e-05
45 *3202:A *3189:RESET_B 2.38193e-05
46 *194:51 *344:12 0
47 *194:51 *344:37 0
48 *195:115 *344:37 0.000177598
49 *199:102 *344:37 0.000819992
50 *199:148 *344:37 5.38986e-05
51 *206:96 *3189:RESET_B 0.000471307
52 *206:110 *3189:RESET_B 0.000124851
53 *207:22 *3200:A 4.82919e-05
54 *275:27 *344:37 0.000111293
55 *275:35 *344:37 0
56 *275:37 *344:12 0
57 *275:37 *344:37 0
58 *277:123 *3171:RESET_B 0.000205117
59 *298:10 *3171:RESET_B 0.00019889
60 *298:10 *3189:RESET_B 0
61 *341:8 *3201:A 6.96579e-05
62 *341:8 *344:12 4.98051e-05
63 *342:10 *344:37 9.47454e-05
64 *342:24 *344:37 8.49485e-05
65 *343:37 *3189:RESET_B 0.000115158
*RES
1 *3204:X *344:4 1.6 
2 *344:4 *344:12 13.73 
3 *344:12 *3200:A 15.57 
4 *344:12 *344:37 34.19 
5 *344:37 *3189:RESET_B 43.61 
6 *3189:RESET_B *3171:RESET_B 5.865 
7 *344:37 *3203:A 2.05 
8 *344:4 *3201:A 3.445 
*END

*D_NET *345 0.0134612
*CONN
*I *3169:RESET_B I *D sky130_fd_sc_hd__dfrtp_1
*I *3161:RESET_B I *D sky130_fd_sc_hd__dfrtp_1
*I *3182:RESET_B I *D sky130_fd_sc_hd__dfrtp_1
*I *3190:RESET_B I *D sky130_fd_sc_hd__dfrtp_1
*I *3174:RESET_B I *D sky130_fd_sc_hd__dfrtp_1
*I *3116:RESET_B I *D sky130_fd_sc_hd__dfrtp_4
*I *3138:RESET_B I *D sky130_fd_sc_hd__dfrtp_1
*I *3122:RESET_B I *D sky130_fd_sc_hd__dfrtp_4
*I *3166:RESET_B I *D sky130_fd_sc_hd__dfrtp_1
*I *3142:RESET_B I *D sky130_fd_sc_hd__dfrtp_1
*I *3205:X O *D sky130_fd_sc_hd__clkbuf_4
*CAP
1 *3169:RESET_B 3.61994e-06
2 *3161:RESET_B 0.000249132
3 *3182:RESET_B 6.45193e-05
4 *3190:RESET_B 0
5 *3174:RESET_B 1.3134e-05
6 *3116:RESET_B 0.00052122
7 *3138:RESET_B 9.34632e-05
8 *3122:RESET_B 4.25832e-05
9 *3166:RESET_B 0.000802527
10 *3142:RESET_B 5.72541e-05
11 *3205:X 0.000409785
12 *345:106 0.000980423
13 *345:70 0.00120364
14 *345:60 0.000798553
15 *345:38 0.00102711
16 *345:32 0.000470324
17 *345:28 0.0017005
18 *345:16 0.00101111
19 *345:8 0.000513627
20 *3122:RESET_B *430:10 4.31698e-05
21 *3138:RESET_B *424:28 7.91705e-05
22 *3161:RESET_B *3055:A0 0
23 *3166:RESET_B *2895:A1 0.000123893
24 *3166:RESET_B *3065:A1 6.55406e-05
25 *3166:RESET_B *406:25 0.000126159
26 *3166:RESET_B *430:102 7.15997e-05
27 *345:16 *3055:A0 0
28 *345:38 *2895:A1 0.000127408
29 *345:38 *2895:A2 2.67022e-05
30 *345:38 *406:25 3.85797e-05
31 *345:70 *430:10 0.00011964
32 *345:106 *3081:A0 0.000138188
33 *2875:B1 *3166:RESET_B 6.81421e-05
34 *2886:B *3138:RESET_B 0.000114492
35 *2935:B1 *345:106 0.000111302
36 *3009:A1 *3116:RESET_B 0.000236454
37 *3018:A *3166:RESET_B 0.000136572
38 *3055:S *345:106 0.00041515
39 *3056:A *345:16 0
40 *3056:A *345:28 0
41 *3071:S *345:28 0.000105849
42 *3071:S *345:32 4.11678e-06
43 *3071:S *345:106 7.06865e-05
44 *3087:S *3161:RESET_B 5.82082e-05
45 *3103:S *3161:RESET_B 0
46 *3103:S *3169:RESET_B 2.65337e-05
47 *3103:S *345:8 0.000185778
48 *3103:S *345:16 7.35813e-05
49 *3103:S *345:28 1.43846e-05
50 *3103:S *345:106 0
51 *3116:CLK *3116:RESET_B 4.82919e-05
52 *3116:D *3116:RESET_B 9.4087e-05
53 *3161:CLK *345:106 0
54 *3161:D *3161:RESET_B 4.99619e-05
55 *3169:D *345:8 0
56 *198:33 *3166:RESET_B 0
57 *198:33 *345:38 0
58 *198:33 *345:60 0.00036532
59 *317:6 *345:106 1.61831e-05
60 *320:25 *345:106 0.000121868
61 *320:31 *345:106 3.67779e-05
62 *327:10 *3182:RESET_B 0.00010596
63 *327:10 *345:106 5.56629e-05
64 *328:14 *345:38 0
65 *328:14 *345:106 0
66 *332:49 *3138:RESET_B 2.32277e-05
67 *336:10 *3182:RESET_B 0
68 *336:10 *345:106 0
*RES
1 *3205:X *345:8 6.895 
2 *345:8 *345:16 3.8225 
3 *345:16 *345:28 10.9775 
4 *345:28 *345:32 1.5 
5 *345:32 *345:38 8.015 
6 *345:38 *3142:RESET_B 2.7425 
7 *345:38 *3166:RESET_B 15.1775 
8 *3166:RESET_B *345:60 8.185 
9 *345:60 *3122:RESET_B 0.7425 
10 *345:60 *345:70 9.435 
11 *345:70 *3138:RESET_B 6.1225 
12 *345:70 *3116:RESET_B 8.3325 
13 *345:32 *3174:RESET_B 0.3975 
14 *345:28 *345:106 24.375 
15 *345:106 *3190:RESET_B 2 
16 *345:106 *3182:RESET_B 3.38 
17 *345:16 *3161:RESET_B 5.84 
18 *345:8 *3169:RESET_B 0.3975 
*END

*D_NET *346 0.0133357
*CONN
*I *3135:RESET_B I *D sky130_fd_sc_hd__dfrtp_1
*I *3167:RESET_B I *D sky130_fd_sc_hd__dfrtp_1
*I *3145:RESET_B I *D sky130_fd_sc_hd__dfrtp_1
*I *3117:RESET_B I *D sky130_fd_sc_hd__dfrtp_4
*I *3129:RESET_B I *D sky130_fd_sc_hd__dfrtp_1
*I *3137:RESET_B I *D sky130_fd_sc_hd__dfrtp_1
*I *3177:RESET_B I *D sky130_fd_sc_hd__dfrtp_1
*I *3185:RESET_B I *D sky130_fd_sc_hd__dfrtp_1
*I *3153:RESET_B I *D sky130_fd_sc_hd__dfrtp_1
*I *3206:X O *D sky130_fd_sc_hd__clkbuf_4
*CAP
1 *3135:RESET_B 0.000136621
2 *3167:RESET_B 0.000141721
3 *3145:RESET_B 8.98134e-06
4 *3117:RESET_B 1.17451e-05
5 *3129:RESET_B 0.000144366
6 *3137:RESET_B 2.47683e-05
7 *3177:RESET_B 0.000128287
8 *3185:RESET_B 5.72667e-05
9 *3153:RESET_B 0.00015726
10 *3206:X 0
11 *346:111 0.000757574
12 *346:77 0.000887267
13 *346:67 0.00213076
14 *346:41 0.000803627
15 *346:33 0.00208222
16 *346:29 0.000975825
17 *346:16 0.00147908
18 *346:4 0.000253526
19 *3135:RESET_B *399:14 3.19615e-05
20 *3137:RESET_B *2991:A1 2.35512e-05
21 *3153:RESET_B *417:8 0.000118267
22 *346:67 *2921:A2 2.03719e-05
23 *346:67 *425:10 0.000160635
24 *346:77 *2991:A1 0.000102738
25 *346:111 *3067:A0 0.000141606
26 *2904:B1 *3135:RESET_B 9.37731e-05
27 *2926:B *346:67 0
28 *2940:B1 *346:41 0
29 *2940:B1 *346:67 0
30 *2992:A *346:77 4.77769e-05
31 *3024:A *3145:RESET_B 1.306e-05
32 *3024:A *346:29 9.94554e-06
33 *3024:A *346:33 4.10576e-05
34 *3088:A *346:41 0.000145475
35 *3129:D *3129:RESET_B 1.22325e-05
36 *3153:D *346:67 7.03276e-05
37 *3177:CLK *3177:RESET_B 0.00015737
38 *3177:D *3177:RESET_B 4.94404e-05
39 *3206:A *346:16 2.68464e-05
40 *3208:A *346:16 2.49909e-05
41 *3216:A *3167:RESET_B 4.82863e-05
42 *195:69 *346:77 0
43 *199:63 *3129:RESET_B 0.000184151
44 *207:43 *346:41 0
45 *207:43 *346:67 0
46 *207:66 *346:67 0
47 *279:16 *346:77 0.000390631
48 *279:44 *346:77 2.75229e-05
49 *294:6 *3167:RESET_B 2.23611e-05
50 *304:10 *3177:RESET_B 0
51 *312:10 *346:41 0
52 *323:22 *3135:RESET_B 0.000137578
53 *323:22 *346:111 0.000848863
54 *333:42 *346:29 0.000203988
*RES
1 *3206:X *346:4 1.6 
2 *346:4 *3153:RESET_B 2.8275 
3 *346:4 *346:16 3.14 
4 *346:16 *346:29 14.27 
5 *346:29 *346:33 3.14 
6 *346:33 *346:41 12.2 
7 *346:41 *3185:RESET_B 0.7425 
8 *346:41 *3177:RESET_B 6.8125 
9 *346:33 *346:67 21.455 
10 *346:67 *346:77 17.305 
11 *346:77 *3137:RESET_B 0.3975 
12 *346:77 *3129:RESET_B 6.9175 
13 *346:67 *3117:RESET_B 0.3975 
14 *346:29 *3145:RESET_B 0.3975 
15 *346:16 *346:111 11.835 
16 *346:111 *3167:RESET_B 4.1225 
17 *346:111 *3135:RESET_B 4.7225 
*END

*D_NET *347 0.0135986
*CONN
*I *3183:RESET_B I *D sky130_fd_sc_hd__dfrtp_1
*I *3115:RESET_B I *D sky130_fd_sc_hd__dfrtp_4
*I *3178:RESET_B I *D sky130_fd_sc_hd__dfrtp_1
*I *3154:RESET_B I *D sky130_fd_sc_hd__dfrtp_1
*I *3146:RESET_B I *D sky130_fd_sc_hd__dfrtp_1
*I *3151:RESET_B I *D sky130_fd_sc_hd__dfrtp_1
*I *3175:RESET_B I *D sky130_fd_sc_hd__dfrtp_1
*I *3143:RESET_B I *D sky130_fd_sc_hd__dfrtp_1
*I *3159:RESET_B I *D sky130_fd_sc_hd__dfrtp_1
*I *3127:RESET_B I *D sky130_fd_sc_hd__dfrtp_1
*I *3207:X O *D sky130_fd_sc_hd__clkbuf_4
*CAP
1 *3183:RESET_B 1.12089e-05
2 *3115:RESET_B 0.000235692
3 *3178:RESET_B 0.000360086
4 *3154:RESET_B 7.8986e-05
5 *3146:RESET_B 0.000374727
6 *3151:RESET_B 0
7 *3175:RESET_B 5.51962e-05
8 *3143:RESET_B 7.4722e-05
9 *3159:RESET_B 0.000298946
10 *3127:RESET_B 5.25504e-05
11 *3207:X 0.000141851
12 *347:97 0.000545755
13 *347:95 0.000946938
14 *347:91 0.000905562
15 *347:80 0.000492073
16 *347:72 0.00106993
17 *347:52 0.000833815
18 *347:18 0.00125959
19 *347:8 0.00104808
20 *347:6 0.000244036
21 *3127:RESET_B *391:8 4.1235e-05
22 *3143:RESET_B *2925:A2 7.9576e-05
23 *3146:RESET_B *2943:A2 0
24 *3146:RESET_B *418:12 7.06865e-05
25 *3154:RESET_B *418:12 1.56428e-05
26 *3175:RESET_B *348:18 8.62794e-05
27 *347:6 *3207:A 1.77665e-05
28 *347:8 *2925:A2 4.08514e-05
29 *347:18 *2925:A2 0.000392028
30 *347:18 *391:8 2.16917e-05
31 *347:18 *423:29 0
32 *347:18 *423:63 0.000106634
33 *347:72 *3099:A0 7.4027e-05
34 *347:80 *423:29 0
35 *2884:B1 *3159:RESET_B 0.000337531
36 *2884:B1 *347:18 0
37 *2924:B1 *347:52 0.000139933
38 *2924:B1 *347:72 5.09929e-05
39 *2925:B1 *347:18 8.88234e-05
40 *2926:D *347:18 9.50342e-06
41 *2942:B1 *3146:RESET_B 4.92128e-05
42 *2942:B1 *3178:RESET_B 0.000187088
43 *2942:B1 *347:97 0.00010141
44 *2946:A *3146:RESET_B 0.00012076
45 *2946:A *3154:RESET_B 1.82499e-06
46 *3019:S *3143:RESET_B 0
47 *3036:A *347:80 9.24049e-05
48 *3036:A *347:91 7.53115e-05
49 *3041:A1 *3146:RESET_B 7.23602e-05
50 *3183:CLK *347:80 0
51 *3183:D *347:80 7.00889e-06
52 *3225:A *3159:RESET_B 3.09233e-05
53 *3242:A *347:72 6.67195e-05
54 *182:12 *3146:RESET_B 2.8185e-05
55 *206:110 *3178:RESET_B 0.000187064
56 *281:38 *347:95 0.000580311
57 *281:143 *347:18 1.6418e-05
58 *321:10 *3115:RESET_B 0
59 *321:10 *347:80 0.000198279
60 *321:10 *347:91 0.000164679
61 *321:12 *347:80 0.000136182
62 *323:12 *3143:RESET_B 7.01123e-05
63 *323:12 *347:52 0.000139933
64 *323:12 *347:72 0.00066944
*RES
1 *3207:X *347:6 3.085 
2 *347:6 *347:8 0.795 
3 *347:8 *347:18 17.305 
4 *347:18 *3127:RESET_B 0.7425 
5 *347:18 *3159:RESET_B 9.6175 
6 *347:8 *3143:RESET_B 5.6125 
7 *347:6 *347:52 3.635 
8 *347:52 *3175:RESET_B 3.0875 
9 *347:52 *347:72 15.59 
10 *347:72 *347:80 7.775 
11 *347:80 *3151:RESET_B 2 
12 *347:80 *347:91 5.72 
13 *347:91 *347:95 11.42 
14 *347:95 *347:97 2.145 
15 *347:97 *3146:RESET_B 8.0675 
16 *347:97 *3154:RESET_B 3.0875 
17 *347:95 *3178:RESET_B 9.5225 
18 *347:91 *3115:RESET_B 7.675 
19 *347:72 *3183:RESET_B 0.3975 
*END

*D_NET *348 0.0195843
*CONN
*I *3207:A I *D sky130_fd_sc_hd__clkbuf_4
*I *3186:RESET_B I *D sky130_fd_sc_hd__dfrtp_1
*I *3170:RESET_B I *D sky130_fd_sc_hd__dfrtp_1
*I *3173:RESET_B I *D sky130_fd_sc_hd__dfrtp_1
*I *3181:RESET_B I *D sky130_fd_sc_hd__dfrtp_1
*I *3162:RESET_B I *D sky130_fd_sc_hd__dfrtp_1
*I *3119:RESET_B I *D sky130_fd_sc_hd__dfrtp_4
*I *3118:RESET_B I *D sky130_fd_sc_hd__dfrtp_4
*I *3141:RESET_B I *D sky130_fd_sc_hd__dfrtp_1
*I *3130:RESET_B I *D sky130_fd_sc_hd__dfrtp_1
*I *3208:X O *D sky130_fd_sc_hd__clkbuf_4
*CAP
1 *3207:A 0.000144422
2 *3186:RESET_B 0.000846764
3 *3170:RESET_B 1.06981e-05
4 *3173:RESET_B 8.66253e-06
5 *3181:RESET_B 4.83401e-05
6 *3162:RESET_B 0
7 *3119:RESET_B 0
8 *3118:RESET_B 0.000148805
9 *3141:RESET_B 0.000472279
10 *3130:RESET_B 6.8757e-06
11 *3208:X 0
12 *348:104 0.000987684
13 *348:88 0.00096236
14 *348:86 0.000967932
15 *348:77 0.000766178
16 *348:70 0.000814065
17 *348:48 0.0015263
18 *348:30 0.00110377
19 *348:18 0.00153776
20 *348:4 0.00162484
21 *3141:RESET_B *2898:A2 4.14369e-05
22 *3141:RESET_B *405:12 0.000112123
23 *348:18 *3083:A0 0.000233594
24 *348:18 *3083:A1 2.01934e-05
25 *348:18 *394:6 4.57056e-05
26 *348:18 *394:10 0.000121029
27 *348:70 *427:16 9.08126e-05
28 *2886:A *348:48 2.3228e-05
29 *2887:C *3141:RESET_B 5.01576e-05
30 *2899:B1 *348:48 0
31 *2906:A *348:48 2.05957e-05
32 *2918:B1 *348:104 8.66976e-06
33 *2922:B1 *3186:RESET_B 0
34 *2924:B1 *3207:A 0.000222753
35 *2926:A *348:70 9.32182e-05
36 *2926:A *348:77 1.59888e-05
37 *2993:A0 *348:18 0.00017092
38 *2993:S *348:18 0.0015004
39 *2994:A *3130:RESET_B 2.53494e-05
40 *2994:A *348:18 8.13946e-05
41 *2994:A *348:48 4.21865e-06
42 *3009:S *3118:RESET_B 0.0001857
43 *3009:S *3141:RESET_B 0.000766056
44 *3073:S *348:104 5.03144e-05
45 *3075:S *3181:RESET_B 5.80887e-05
46 *3080:A *348:104 0.000102791
47 *3090:A *3186:RESET_B 0
48 *3096:A *348:104 0
49 *3106:A *3186:RESET_B 2.49909e-05
50 *3118:CLK *348:48 0.000345562
51 *3141:CLK *3141:RESET_B 7.94826e-05
52 *3162:D *348:77 0
53 *3170:D *3170:RESET_B 6.69608e-06
54 *3170:D *348:104 9.47017e-05
55 *3175:RESET_B *348:18 8.62794e-05
56 *3181:CLK *3173:RESET_B 4.2463e-05
57 *3181:CLK *3181:RESET_B 0.000231414
58 *3230:A *3186:RESET_B 0.000217024
59 *3232:A *348:104 2.24336e-05
60 *3244:A *348:18 4.66108e-05
61 *203:102 *3141:RESET_B 4.24292e-06
62 *203:140 *348:18 0.000415853
63 *280:10 *348:48 0.000288251
64 *280:44 *348:48 0.000447217
65 *300:6 *3173:RESET_B 1.81873e-05
66 *300:6 *3181:RESET_B 5.05437e-05
67 *320:8 *3186:RESET_B 0.000254651
68 *324:44 *348:18 0.000502552
69 *332:33 *3141:RESET_B 0.000200799
70 *332:97 *348:30 5.18694e-05
71 *332:97 *348:70 0.000112284
72 *347:6 *3207:A 1.77665e-05
*RES
1 *3208:X *348:4 1.6 
2 *348:4 *348:18 37.105 
3 *348:18 *3130:RESET_B 0.3975 
4 *348:18 *348:30 2.975 
5 *348:30 *348:48 23.34 
6 *348:48 *3141:RESET_B 15.8425 
7 *348:48 *3118:RESET_B 2.8125 
8 *348:30 *348:70 3.42 
9 *348:70 *3119:RESET_B 2 
10 *348:70 *348:77 10.56 
11 *348:77 *3162:RESET_B 2 
12 *348:77 *348:86 3.38 
13 *348:86 *348:88 0.36 
14 *348:88 *348:104 11.1066 
15 *348:104 *3181:RESET_B 2.1225 
16 *348:104 *3173:RESET_B 0.3975 
17 *348:88 *3170:RESET_B 0.3975 
18 *348:86 *3186:RESET_B 16.795 
19 *348:4 *3207:A 8.705 
*END

*D_NET *349 0.000872844
*CONN
*I *2985:A0 I *D sky130_fd_sc_hd__mux2_1
*I *3209:X O *D sky130_fd_sc_hd__dlygate4sd3_1
*CAP
1 *2985:A0 0.000171234
2 *3209:X 0.000171234
3 *2985:A0 *427:96 9.55736e-05
4 *2947:B *2985:A0 0.000141606
5 *2985:S *2985:A0 1.47347e-05
6 *206:61 *2985:A0 7.24779e-05
7 *318:24 *2985:A0 4.53487e-05
8 *325:41 *2985:A0 0.000160635
*RES
1 *3209:X *2985:A0 12.36 
*END

*D_NET *350 0.00104681
*CONN
*I *2980:A0 I *D sky130_fd_sc_hd__mux2_1
*I *3220:X O *D sky130_fd_sc_hd__dlygate4sd3_1
*CAP
1 *2980:A0 0.000163542
2 *3220:X 0.000163542
3 *2980:A1 *2980:A0 6.58339e-05
4 *2980:S *2980:A0 2.49909e-05
5 *3027:S *2980:A0 0.000262115
6 *203:25 *2980:A0 5.23362e-05
7 *325:20 *2980:A0 0.000314452
*RES
1 *3220:X *2980:A0 12.36 
*END

*D_NET *351 0.0167906
*CONN
*I *3099:A1 I *D sky130_fd_sc_hd__mux2_1
*I *3083:A1 I *D sky130_fd_sc_hd__mux2_1
*I *3051:A0 I *D sky130_fd_sc_hd__mux2_1
*I *3067:A1 I *D sky130_fd_sc_hd__mux2_1
*I *3262:X O *D sky130_fd_sc_hd__clkbuf_2
*CAP
1 *3099:A1 0.000198707
2 *3083:A1 5.90044e-05
3 *3051:A0 0.000567065
4 *3067:A1 3.58834e-05
5 *3262:X 0.0029436
6 *351:38 0.00070409
7 *351:25 0.00132386
8 *351:14 0.00166111
9 *351:12 0.00425842
10 *3051:A0 *2904:A1 3.74161e-05
11 *3051:A0 *3051:A1 0.000200615
12 *3051:A0 *423:39 8.40213e-05
13 *3067:A1 *3067:A0 2.75229e-05
14 *3083:A1 *3083:A0 4.89395e-05
15 *3099:A1 *3099:A0 2.69217e-05
16 *351:14 *3023:A0 0.000125123
17 *351:14 *409:8 0.000114518
18 *351:25 *2904:A2 8.09021e-06
19 *351:25 *399:14 3.84331e-05
20 *2904:B1 *3051:A0 2.75145e-05
21 *2905:B1 *351:25 7.23602e-05
22 *2950:A *3051:A0 0.000263968
23 *3003:A1 *351:25 1.07797e-05
24 *3003:A1 *351:38 5.55616e-05
25 *3003:S *351:25 0.000522176
26 *3019:S *3099:A1 2.48641e-05
27 *3019:S *351:38 0.000190421
28 *3023:S *351:14 0.000112589
29 *3135:D *351:25 0.000118527
30 *3225:A *3051:A0 5.30673e-05
31 *195:69 *3051:A0 5.05437e-05
32 *195:80 *3051:A0 0.000113809
33 *199:80 *351:14 0.000187766
34 *199:80 *351:25 6.75724e-05
35 *207:43 *351:14 0
36 *207:66 *3099:A1 0.000342621
37 *207:66 *351:14 0
38 *207:66 *351:25 0
39 *207:66 *351:38 0.000957499
40 *324:8 *351:12 0.00113544
41 *348:18 *3083:A1 2.01934e-05
*RES
1 *3262:X *351:12 49.7625 
2 *351:12 *351:14 23.2725 
3 *351:14 *3067:A1 4.05 
4 *351:14 *351:25 8.265 
5 *351:25 *3051:A0 14.76 
6 *351:25 *351:38 12.345 
7 *351:38 *3083:A1 4.395 
8 *351:38 *3099:A1 8.235 
*END

*D_NET *352 0.000405381
*CONN
*I *3069:A0 I *D sky130_fd_sc_hd__mux2_1
*I *3231:X O *D sky130_fd_sc_hd__dlygate4sd3_1
*CAP
1 *3069:A0 0.000139405
2 *3231:X 0.000139405
3 *2937:D *3069:A0 0.00012657
4 *3005:A1 *3069:A0 0
*RES
1 *3231:X *3069:A0 9.21 
*END

*D_NET *353 0.000395091
*CONN
*I *3101:A0 I *D sky130_fd_sc_hd__mux2_1
*I *3239:X O *D sky130_fd_sc_hd__dlygate4sd3_1
*CAP
1 *3101:A0 0.000105336
2 *3239:X 0.000105336
3 *3239:A *3101:A0 4.66108e-05
4 *322:28 *3101:A0 0.00013781
*RES
1 *3239:X *3101:A0 5.03 
*END

*D_NET *354 0.000888082
*CONN
*I *3081:A0 I *D sky130_fd_sc_hd__mux2_1
*I *3240:X O *D sky130_fd_sc_hd__dlygate4sd3_1
*CAP
1 *3081:A0 0.00029479
2 *3240:X 0.00029479
3 *3103:S *3081:A0 0
4 *3204:A *3081:A0 0.000160314
5 *320:25 *3081:A0 0
6 *345:106 *3081:A0 0.000138188
*RES
1 *3240:X *3081:A0 12.36 
*END

*D_NET *355 0.00115827
*CONN
*I *2975:A0 I *D sky130_fd_sc_hd__mux2_1
*I *3241:X O *D sky130_fd_sc_hd__dlygate4sd3_1
*CAP
1 *2975:A0 0.000113654
2 *3241:X 0.000113654
3 *2949:A *2975:A0 0.000162311
4 *2949:C *2975:A0 0.000184278
5 *2949:D *2975:A0 8.57024e-05
6 *2975:S *2975:A0 8.8266e-05
7 *163:34 *2975:A0 0.00040272
8 *199:118 *2975:A0 7.68414e-06
*RES
1 *3241:X *2975:A0 8.6 
*END

*D_NET *356 0.00100288
*CONN
*I *3099:A0 I *D sky130_fd_sc_hd__mux2_1
*I *3242:X O *D sky130_fd_sc_hd__dlygate4sd3_1
*CAP
1 *3099:A0 0.000406831
2 *3242:X 0.000406831
3 *3099:A1 *3099:A0 2.69217e-05
4 *3099:S *3099:A0 8.8266e-05
5 *347:72 *3099:A0 7.4027e-05
*RES
1 *3242:X *3099:A0 13.875 
*END

*D_NET *357 0.000534881
*CONN
*I *3085:A0 I *D sky130_fd_sc_hd__mux2_1
*I *3243:X O *D sky130_fd_sc_hd__dlygate4sd3_1
*CAP
1 *3085:A0 0.000186495
2 *3243:X 0.000186495
3 *3085:A0 *3085:A1 1.83756e-05
4 *3085:A0 *428:27 3.86607e-05
5 *2937:A *3085:A0 7.23602e-05
6 *3085:S *3085:A0 3.24942e-05
*RES
1 *3243:X *3085:A0 9.9 
*END

*D_NET *358 0.000910748
*CONN
*I *3083:A0 I *D sky130_fd_sc_hd__mux2_1
*I *3244:X O *D sky130_fd_sc_hd__dlygate4sd3_1
*CAP
1 *3083:A0 0.000314107
2 *3244:X 0.000314107
3 *3083:A1 *3083:A0 4.89395e-05
4 *348:18 *3083:A0 0.000233594
*RES
1 *3244:X *3083:A0 8.135 
*END

*D_NET *359 0.000350182
*CONN
*I *3107:A0 I *D sky130_fd_sc_hd__mux2_1
*I *3210:X O *D sky130_fd_sc_hd__dlygate4sd3_1
*CAP
1 *3107:A0 6.93328e-05
2 *3210:X 6.93328e-05
3 *3107:A0 *3107:A1 0.000162311
4 *3107:S *3107:A0 2.75145e-05
5 *206:96 *3107:A0 2.16917e-05
*RES
1 *3210:X *3107:A0 5.03 
*END

*D_NET *360 0.000396505
*CONN
*I *3093:A0 I *D sky130_fd_sc_hd__mux2_1
*I *3211:X O *D sky130_fd_sc_hd__dlygate4sd3_1
*CAP
1 *3093:A0 5.07729e-05
2 *3211:X 5.07729e-05
3 *3093:A0 *3093:A1 0.000124895
4 *3093:S *3093:A0 0.000124007
5 *3211:A *3093:A0 4.60584e-05
*RES
1 *3211:X *3093:A0 5.03 
*END

*D_NET *361 0.000907803
*CONN
*I *2970:A1 I *D sky130_fd_sc_hd__mux2_1
*I *3212:X O *D sky130_fd_sc_hd__dlygate4sd3_1
*CAP
1 *2970:A1 0.000292617
2 *3212:X 0.000292617
3 *2949:D *2970:A1 0.000105849
4 *2975:A1 *2970:A1 0.000216721
5 *195:115 *2970:A1 0
6 *195:126 *2970:A1 0
*RES
1 *3212:X *2970:A1 11.865 
*END

*D_NET *362 0.0170438
*CONN
*I *3085:A1 I *D sky130_fd_sc_hd__mux2_1
*I *3053:A0 I *D sky130_fd_sc_hd__mux2_1
*I *3069:A1 I *D sky130_fd_sc_hd__mux2_1
*I *3101:A1 I *D sky130_fd_sc_hd__mux2_1
*I *3263:X O *D sky130_fd_sc_hd__clkbuf_2
*CAP
1 *3085:A1 4.79149e-05
2 *3053:A0 0.000417637
3 *3069:A1 1.85694e-05
4 *3101:A1 0
5 *3263:X 0
6 *362:33 0.000807765
7 *362:24 0.000611506
8 *362:16 0.0027799
9 *362:8 0.00566922
10 *362:6 0.00317718
11 *362:24 *424:107 0.000545249
12 *2913:B1 *362:24 0.000231351
13 *2917:B *362:24 0.00069807
14 *2917:C *362:24 7.23602e-05
15 *2927:B *362:24 6.55328e-05
16 *2937:A *362:24 0
17 *3069:S *3053:A0 4.99619e-05
18 *3085:A0 *3085:A1 1.83756e-05
19 *3101:S *362:33 0.000346341
20 *3176:CLK *362:16 1.7386e-05
21 *3272:A *362:8 0
22 *194:108 *3053:A0 0
23 *206:61 *362:33 0.00014719
24 *273:26 *362:24 0.000160698
25 *303:8 *362:16 4.38278e-05
26 *318:14 *362:8 0
27 *322:28 *3053:A0 3.90495e-05
28 *322:28 *3069:A1 9.53428e-06
29 *322:28 *362:24 4.82863e-05
30 *322:28 *362:33 0.00102093
*RES
1 *3263:X *362:6 3.6 
2 *362:6 *362:8 53.145 
3 *362:8 *362:16 29.735 
4 *362:16 *362:24 14.5 
5 *362:24 *3101:A1 1.6 
6 *362:24 *362:33 10.125 
7 *362:33 *3069:A1 1.96 
8 *362:33 *3053:A0 12.71 
9 *362:16 *3085:A1 2.395 
*END

*D_NET *363 0.000365395
*CONN
*I *3109:A0 I *D sky130_fd_sc_hd__mux2_1
*I *3213:X O *D sky130_fd_sc_hd__dlygate4sd3_1
*CAP
1 *3109:A0 8.34071e-05
2 *3213:X 8.34071e-05
3 *3109:S *3109:A0 9.80664e-05
4 *3110:A *3109:A0 4.99619e-05
5 *3213:A *3109:A0 5.05521e-05
*RES
1 *3213:X *3109:A0 5.03 
*END

*D_NET *364 0.000931977
*CONN
*I *3097:A0 I *D sky130_fd_sc_hd__mux2_1
*I *3214:X O *D sky130_fd_sc_hd__dlygate4sd3_1
*CAP
1 *3097:A0 0.000153395
2 *3214:X 0.000153395
3 *2915:B1 *3097:A0 1.1561e-05
4 *3087:S *3097:A0 9.37889e-05
5 *3097:A1 *3097:A0 6.38722e-05
6 *3228:A *3097:A0 0.000158965
7 *202:106 *3097:A0 8.8266e-05
8 *206:150 *3097:A0 0.000160401
9 *278:28 *3097:A0 4.83324e-05
*RES
1 *3214:X *3097:A0 11.7 
*END

*D_NET *365 0.00122553
*CONN
*I *3077:A0 I *D sky130_fd_sc_hd__mux2_1
*I *3215:X O *D sky130_fd_sc_hd__dlygate4sd3_1
*CAP
1 *3077:A0 0.000405334
2 *3215:X 0.000405334
3 *3077:A0 *390:14 0
4 *3077:A0 *390:18 0.000270881
5 *3172:RESET_B *3077:A0 3.39064e-05
6 *198:6 *3077:A0 2.20014e-05
7 *198:19 *3077:A0 1.47347e-05
8 *206:150 *3077:A0 7.33437e-05
*RES
1 *3215:X *3077:A0 13.725 
*END

*D_NET *366 0.000908741
*CONN
*I *3067:A0 I *D sky130_fd_sc_hd__mux2_1
*I *3216:X O *D sky130_fd_sc_hd__dlygate4sd3_1
*CAP
1 *3067:A0 0.000326508
2 *3216:X 0.000326508
3 *3067:A1 *3067:A0 2.75229e-05
4 *3067:S *3067:A0 8.65961e-05
5 *346:111 *3067:A0 0.000141606
*RES
1 *3216:X *3067:A0 13.08 
*END

*D_NET *367 0.000487618
*CONN
*I *3065:A1 I *D sky130_fd_sc_hd__mux2_1
*I *3217:X O *D sky130_fd_sc_hd__dlygate4sd3_1
*CAP
1 *3065:A1 0.000126049
2 *3217:X 0.000126049
3 *3065:A0 *3065:A1 0.000122202
4 *3065:S *3065:A1 4.77769e-05
5 *3166:RESET_B *3065:A1 6.55406e-05
*RES
1 *3217:X *3065:A1 10.08 
*END

*D_NET *368 0.000395687
*CONN
*I *3105:A0 I *D sky130_fd_sc_hd__mux2_1
*I *3218:X O *D sky130_fd_sc_hd__dlygate4sd3_1
*CAP
1 *3105:A0 9.8371e-05
2 *3218:X 9.8371e-05
3 *3218:A *3105:A0 0.000198945
*RES
1 *3218:X *3105:A0 5.03 
*END

*D_NET *369 0.000987818
*CONN
*I *3103:A0 I *D sky130_fd_sc_hd__mux2_1
*I *3219:X O *D sky130_fd_sc_hd__dlygate4sd3_1
*CAP
1 *3103:A0 0.000357805
2 *3219:X 0.000357805
3 *2920:B1 *3103:A0 0
4 *2940:B1 *3103:A0 4.82919e-05
5 *207:43 *3103:A0 0.000223916
6 *279:88 *3103:A0 0
7 *304:10 *3103:A0 0
*RES
1 *3219:X *3103:A0 13.245 
*END

*D_NET *370 0.000767105
*CONN
*I *3053:A1 I *D sky130_fd_sc_hd__mux2_1
*I *3221:X O *D sky130_fd_sc_hd__dlygate4sd3_1
*CAP
1 *3053:A1 0.000326445
2 *3221:X 0.000326445
3 *3053:S *3053:A1 5.07419e-05
4 *194:93 *3053:A1 6.34721e-05
*RES
1 *3221:X *3053:A1 11.28 
*END

*D_NET *371 0.000815849
*CONN
*I *3059:A1 I *D sky130_fd_sc_hd__mux2_1
*I *3222:X O *D sky130_fd_sc_hd__dlygate4sd3_1
*CAP
1 *3059:A1 0.000279888
2 *3222:X 0.000279888
3 *3059:A1 *3059:A0 5.83121e-06
4 *2869:B1 *3059:A1 3.6227e-05
5 *2889:B1 *3059:A1 7.23602e-05
6 *194:108 *3059:A1 1.61831e-05
7 *194:125 *3059:A1 0.000125472
*RES
1 *3222:X *3059:A1 11.28 
*END

*D_NET *372 0.000225461
*CONN
*I *3087:A0 I *D sky130_fd_sc_hd__mux2_1
*I *3223:X O *D sky130_fd_sc_hd__dlygate4sd3_1
*CAP
1 *3087:A0 8.28458e-05
2 *3223:X 8.28458e-05
3 *3087:A0 *373:14 2.11084e-05
4 *304:10 *3087:A0 0
5 *312:10 *3087:A0 3.86607e-05
*RES
1 *3223:X *3087:A0 8.52 
*END

*D_NET *373 0.00955867
*CONN
*I *3087:A1 I *D sky130_fd_sc_hd__mux2_1
*I *3103:A1 I *D sky130_fd_sc_hd__mux2_1
*I *3071:A1 I *D sky130_fd_sc_hd__mux2_1
*I *3055:A0 I *D sky130_fd_sc_hd__mux2_1
*I *3264:X O *D sky130_fd_sc_hd__dlymetal6s2s_1
*CAP
1 *3087:A1 0
2 *3103:A1 0
3 *3071:A1 0
4 *3055:A0 0.000370225
5 *3264:X 0.0027286
6 *373:20 0.00122309
7 *373:16 0.00106001
8 *373:14 0.00293574
9 *3055:A0 *3055:A1 4.82863e-05
10 *373:20 *3071:A0 0.00011577
11 *3055:S *3055:A0 2.30292e-05
12 *3056:A *3055:A0 0
13 *3072:A *3055:A0 0
14 *3087:A0 *373:14 2.11084e-05
15 *3087:S *373:14 5.4155e-06
16 *3087:S *373:16 5.74756e-05
17 *3087:S *373:20 0.00027683
18 *3161:RESET_B *3055:A0 0
19 *3224:A *373:20 9.27495e-05
20 *324:10 *3055:A0 0.000600334
21 *345:16 *3055:A0 0
*RES
1 *3264:X *373:14 48.245 
2 *373:14 *373:16 2.52 
3 *373:16 *373:20 11.16 
4 *373:20 *3055:A0 13.385 
5 *373:20 *3071:A1 1.6 
6 *373:16 *3103:A1 1.6 
7 *373:14 *3087:A1 1.6 
*END

*D_NET *374 0.000389074
*CONN
*I *3071:A0 I *D sky130_fd_sc_hd__mux2_1
*I *3224:X O *D sky130_fd_sc_hd__dlygate4sd3_1
*CAP
1 *3071:A0 9.17258e-05
2 *3224:X 9.17258e-05
3 *3071:S *3071:A0 8.40213e-05
4 *3087:S *3071:A0 5.83121e-06
5 *373:20 *3071:A0 0.00011577
*RES
1 *3224:X *3071:A0 5.375 
*END

*D_NET *375 0.000460487
*CONN
*I *3051:A1 I *D sky130_fd_sc_hd__mux2_1
*I *3225:X O *D sky130_fd_sc_hd__dlygate4sd3_1
*CAP
1 *3051:A1 0.000129936
2 *3225:X 0.000129936
3 *3051:A0 *3051:A1 0.000200615
*RES
1 *3225:X *3051:A1 5.03 
*END

*D_NET *376 0.000471903
*CONN
*I *3061:A1 I *D sky130_fd_sc_hd__mux2_1
*I *3226:X O *D sky130_fd_sc_hd__dlygate4sd3_1
*CAP
1 *3061:A1 3.26562e-05
2 *3226:X 3.26562e-05
3 *3061:A1 *3061:A0 4.99619e-05
4 *3055:S *3061:A1 0.000241483
5 *3226:A *3061:A1 0.000115146
*RES
1 *3226:X *3061:A1 5.375 
*END

*D_NET *377 0.00101322
*CONN
*I *3111:A0 I *D sky130_fd_sc_hd__mux2_1
*I *3227:X O *D sky130_fd_sc_hd__dlygate4sd3_1
*CAP
1 *3111:A0 0.000319172
2 *3227:X 0.000319172
3 *2938:B1 *3111:A0 0.000181376
4 *3111:A1 *3111:A0 0.000105508
5 *3165:RESET_B *3111:A0 0
6 *3189:RESET_B *3111:A0 5.83121e-06
7 *3227:A *3111:A0 7.23602e-05
8 *206:96 *3111:A0 9.80032e-06
*RES
1 *3227:X *3111:A0 12.285 
*END

*D_NET *378 0.000421388
*CONN
*I *3113:A0 I *D sky130_fd_sc_hd__mux2_1
*I *3228:X O *D sky130_fd_sc_hd__dlygate4sd3_1
*CAP
1 *3113:A0 3.36401e-05
2 *3228:X 3.36401e-05
3 *3103:S *3113:A0 8.8266e-05
4 *3228:A *3113:A0 0.000200615
5 *206:150 *3113:A0 6.52265e-05
*RES
1 *3228:X *3113:A0 5.03 
*END

*D_NET *379 0.000845757
*CONN
*I *3055:A1 I *D sky130_fd_sc_hd__mux2_1
*I *3229:X O *D sky130_fd_sc_hd__dlygate4sd3_1
*CAP
1 *3055:A1 0.000374592
2 *3229:X 0.000374592
3 *3055:A0 *3055:A1 4.82863e-05
4 *3055:S *3055:A1 4.82863e-05
5 *324:10 *3055:A1 0
*RES
1 *3229:X *3055:A1 13.08 
*END

*D_NET *380 0.000351798
*CONN
*I *3057:A1 I *D sky130_fd_sc_hd__mux2_1
*I *3230:X O *D sky130_fd_sc_hd__dlygate4sd3_1
*CAP
1 *3057:A1 0.000110824
2 *3230:X 0.000110824
3 *2902:B1 *3057:A1 7.23602e-05
4 *3057:S *3057:A1 4.82863e-05
5 *3186:CLK *3057:A1 0
6 *3236:A *3057:A1 9.50342e-06
*RES
1 *3230:X *3057:A1 8.865 
*END

*D_NET *381 0.000490621
*CONN
*I *3095:A0 I *D sky130_fd_sc_hd__mux2_1
*I *3232:X O *D sky130_fd_sc_hd__dlygate4sd3_1
*CAP
1 *3095:A0 9.0826e-05
2 *3232:X 9.0826e-05
3 *3095:A0 *389:32 8.57024e-05
4 *202:73 *3095:A0 8.40213e-05
5 *319:16 *3095:A0 0.000139245
*RES
1 *3232:X *3095:A0 9.63 
*END

*D_NET *382 0.000395088
*CONN
*I *3089:A0 I *D sky130_fd_sc_hd__mux2_1
*I *3233:X O *D sky130_fd_sc_hd__dlygate4sd3_1
*CAP
1 *3089:A0 9.72366e-05
2 *3233:X 9.72366e-05
3 *3089:A0 *389:18 0.000200615
*RES
1 *3233:X *3089:A0 5.03 
*END

*D_NET *383 0.000351176
*CONN
*I *3075:A0 I *D sky130_fd_sc_hd__mux2_1
*I *3234:X O *D sky130_fd_sc_hd__dlygate4sd3_1
*CAP
1 *3075:A0 7.25756e-05
2 *3234:X 7.25756e-05
3 *3075:A0 *389:32 4.01811e-05
4 *3075:A0 *389:34 4.21518e-05
5 *3075:A0 *389:38 4.89295e-05
6 *3075:S *3075:A0 2.69867e-05
7 *206:96 *3075:A0 4.77757e-05
*RES
1 *3234:X *3075:A0 5.03 
*END

*D_NET *384 0.0112275
*CONN
*I *3089:A1 I *D sky130_fd_sc_hd__mux2_1
*I *3105:A1 I *D sky130_fd_sc_hd__mux2_1
*I *3073:A1 I *D sky130_fd_sc_hd__mux2_1
*I *3057:A0 I *D sky130_fd_sc_hd__mux2_1
*I *3265:X O *D sky130_fd_sc_hd__dlymetal6s2s_1
*CAP
1 *3089:A1 3.81081e-05
2 *3105:A1 8.7494e-05
3 *3073:A1 0
4 *3057:A0 0.00033788
5 *3265:X 0.00227539
6 *384:40 0.000948974
7 *384:27 0.000905256
8 *384:10 0.00185784
9 *384:8 0.00371347
10 *3057:A0 *3073:A0 0
11 *384:10 *3073:A0 0
12 *384:27 *3073:A0 4.99619e-05
13 *384:40 *3073:A0 4.82863e-05
14 pattern_match[0] *384:8 3.00381e-05
15 *2922:B1 *3105:A1 0
16 *2942:B1 *3105:A1 9.50342e-06
17 *3057:S *3057:A0 0.000124007
18 *3073:S *384:27 6.69341e-05
19 *3073:S *384:40 1.34503e-05
20 *3074:A *384:27 3.11592e-05
21 *3186:CLK *384:40 0.000134429
22 *3186:D *384:40 8.22234e-06
23 *3230:A *3057:A0 7.63125e-05
24 *3233:A *3089:A1 0
25 *3233:A *3105:A1 0
26 *3236:A *3057:A0 0
27 *3236:A *384:10 0
28 *206:110 *3089:A1 7.23602e-05
29 *206:110 *3105:A1 0.000229203
30 *305:8 *384:40 5.13899e-05
31 *313:8 *3105:A1 0.000117825
*RES
1 *3265:X *384:8 37.515 
2 *384:8 *384:10 23.82 
3 *384:10 *3057:A0 8.925 
4 *384:10 *384:27 3.845 
5 *384:27 *3073:A1 1.6 
6 *384:27 *384:40 12.23 
7 *384:40 *3105:A1 6.255 
8 *384:40 *3089:A1 4.47 
*END

*D_NET *385 0.000372574
*CONN
*I *3063:A1 I *D sky130_fd_sc_hd__mux2_1
*I *3235:X O *D sky130_fd_sc_hd__dlygate4sd3_1
*CAP
1 *3063:A1 0.000104685
2 *3235:X 0.000104685
3 *3057:S *3063:A1 0.000114912
4 *194:125 *3063:A1 4.82919e-05
*RES
1 *3235:X *3063:A1 4.685 
*END

*D_NET *386 0.000373366
*CONN
*I *3073:A0 I *D sky130_fd_sc_hd__mux2_1
*I *3236:X O *D sky130_fd_sc_hd__dlygate4sd3_1
*CAP
1 *3073:A0 0.000101379
2 *3236:X 0.000101379
3 *3057:A0 *3073:A0 0
4 *3236:A *3073:A0 7.23602e-05
5 *384:10 *3073:A0 0
6 *384:27 *3073:A0 4.99619e-05
7 *384:40 *3073:A0 4.82863e-05
*RES
1 *3236:X *3073:A0 8.865 
*END

*D_NET *387 0.00118845
*CONN
*I *3079:A0 I *D sky130_fd_sc_hd__mux2_1
*I *3237:X O *D sky130_fd_sc_hd__dlygate4sd3_1
*CAP
1 *3079:A0 0.000106827
2 *3237:X 0.000106827
3 *3073:S *3079:A0 0.000513795
4 *3170:CLK *3079:A0 3.66286e-05
5 *3173:CLK *3079:A0 0.000139245
6 *280:93 *3079:A0 0.000278117
7 *319:22 *3079:A0 7.00889e-06
*RES
1 *3237:X *3079:A0 12.3 
*END

*D_NET *388 0.000404866
*CONN
*I *3091:A0 I *D sky130_fd_sc_hd__mux2_1
*I *3238:X O *D sky130_fd_sc_hd__dlygate4sd3_1
*CAP
1 *3091:A0 8.8578e-05
2 *3238:X 8.8578e-05
3 *3163:CLK *3091:A0 5.83121e-06
4 *202:44 *3091:A0 6.55328e-05
5 *202:73 *3091:A0 1.71013e-05
6 *277:116 *3091:A0 0.000139245
*RES
1 *3238:X *3091:A0 9.285 
*END

*D_NET *389 0.0170295
*CONN
*I *3059:A0 I *D sky130_fd_sc_hd__mux2_1
*I *3075:A1 I *D sky130_fd_sc_hd__mux2_1
*I *3107:A1 I *D sky130_fd_sc_hd__mux2_1
*I *3091:A1 I *D sky130_fd_sc_hd__mux2_1
*I *3266:X O *D sky130_fd_sc_hd__clkbuf_2
*CAP
1 *3059:A0 0.000309616
2 *3075:A1 0
3 *3107:A1 0.000584155
4 *3091:A1 7.87457e-05
5 *3266:X 0.002466
6 *389:38 0.000904415
7 *389:34 0.000302198
8 *389:32 0.00300563
9 *389:18 0.00510133
10 *2869:B1 *3059:A0 0
11 *2889:B1 *3059:A0 0
12 *3059:A1 *3059:A0 5.83121e-06
13 *3075:A0 *389:32 4.01811e-05
14 *3075:A0 *389:34 4.21518e-05
15 *3075:A0 *389:38 4.89295e-05
16 *3076:A *3059:A0 0
17 *3076:A *3107:A1 0
18 *3089:A0 *389:18 0.000200615
19 *3089:S *389:18 0.000428764
20 *3089:S *389:32 0.000860919
21 *3090:A *389:18 7.35813e-05
22 *3091:S *3091:A1 2.75229e-05
23 *3095:A0 *389:32 8.57024e-05
24 *3107:A0 *3107:A1 0.000162311
25 *3163:RESET_B *3059:A0 0
26 *3165:CLK *389:32 0.00018766
27 *3171:RESET_B *389:32 0.000271003
28 *3210:A *3107:A1 5.05521e-05
29 *3233:A *389:18 0.000171695
30 *3236:A *389:32 0.000201508
31 *194:108 *3059:A0 4.94474e-05
32 *202:73 *389:32 0.000740269
33 *206:96 *3059:A0 7.47215e-05
34 *206:96 *3107:A1 0.000306977
35 *206:96 *389:32 0.000175525
36 *277:116 *3107:A1 3.47837e-05
37 *298:10 *389:32 3.67779e-05
38 *321:10 *389:18 0
*RES
1 *3266:X *389:18 47.015 
2 *389:18 *389:32 45.565 
3 *389:32 *389:34 0.795 
4 *389:34 *389:38 3.57 
5 *389:38 *3091:A1 2.74 
6 *389:38 *3107:A1 13.73 
7 *389:34 *3075:A1 1.6 
8 *389:32 *3059:A0 10.745 
*END

*D_NET *390 0.020157
*CONN
*I *3061:A0 I *D sky130_fd_sc_hd__mux2_1
*I *3077:A1 I *D sky130_fd_sc_hd__mux2_1
*I *3093:A1 I *D sky130_fd_sc_hd__mux2_1
*I *3109:A1 I *D sky130_fd_sc_hd__mux2_1
*I *3267:X O *D sky130_fd_sc_hd__clkbuf_2
*CAP
1 *3061:A0 0.000133964
2 *3077:A1 0
3 *3093:A1 0.000162743
4 *3109:A1 5.60551e-05
5 *3267:X 0.00202787
6 *390:26 0.00133591
7 *390:18 0.00116954
8 *390:14 0.00278709
9 *390:8 0.00462856
10 *2891:B1 *390:26 2.12738e-05
11 *2931:B1 *3093:A1 8.25609e-05
12 *3055:S *3061:A0 1.60203e-05
13 *3061:A1 *3061:A0 4.99619e-05
14 *3077:A0 *390:14 0
15 *3077:A0 *390:18 0.000270881
16 *3093:A0 *3093:A1 0.000124895
17 *3109:S *3109:A1 0.00012496
18 *3109:S *390:26 0.000248501
19 *3226:A *3061:A0 0.000158066
20 *3267:A *390:8 0.000123592
21 *194:20 *3061:A0 0.000184661
22 *194:20 *390:14 8.9014e-05
23 *198:6 *390:18 8.52883e-05
24 *198:19 *3061:A0 2.15594e-05
25 *198:19 *390:18 0.000184439
26 *202:106 *3061:A0 1.91597e-05
27 *206:8 *390:26 0.000546246
28 *206:150 *390:26 0.000881104
29 *275:70 *390:26 2.66935e-05
30 *291:10 *3061:A0 0.000137571
31 *324:8 *390:8 0.00284011
32 *327:8 *390:14 0.00161876
33 *339:56 *3093:A1 0
*RES
1 *3267:X *390:8 42.34 
2 *390:8 *390:14 47.51 
3 *390:14 *390:18 4.52 
4 *390:18 *390:26 20.155 
5 *390:26 *3109:A1 3.01 
6 *390:26 *3093:A1 8.63 
7 *390:18 *3077:A1 1.6 
8 *390:14 *3061:A0 7.83 
*END

*D_NET *391 0.00223922
*CONN
*I *2884:A1 I *D sky130_fd_sc_hd__o21ai_1
*I *2987:A1 I *D sky130_fd_sc_hd__mux2_1
*I *2885:A1 I *D sky130_fd_sc_hd__a21o_1
*I *3127:Q O *D sky130_fd_sc_hd__dfrtp_1
*CAP
1 *2884:A1 5.72396e-05
2 *2987:A1 0.000123112
3 *2885:A1 6.43345e-05
4 *3127:Q 0.000208408
5 *391:16 0.000296224
6 *391:8 0.000374425
7 *2884:A1 *2884:A2 0.000183043
8 *2885:A1 *2953:A1 2.30292e-05
9 *2885:A1 *423:69 2.05056e-05
10 *2987:A1 *423:69 5.83121e-06
11 *391:8 *423:63 0.000238484
12 *391:16 *2884:A2 4.44927e-05
13 *391:16 *2953:A1 1.10198e-05
14 *391:16 *423:69 0.000116165
15 *2885:B1 *2884:A1 0.000132089
16 *2885:B1 *2885:A1 1.16578e-05
17 *2885:B1 *391:16 0.000183043
18 *2946:B *391:16 3.32238e-05
19 *2987:A0 *2987:A1 4.99619e-05
20 *3127:RESET_B *391:8 4.1235e-05
21 *163:20 *2884:A1 0
22 *347:18 *391:8 2.16917e-05
*RES
1 *3127:Q *391:8 7.845 
2 *391:8 *391:16 4.955 
3 *391:16 *2885:A1 2.755 
4 *391:16 *2987:A1 3.43 
5 *391:8 *2884:A1 5.745 
*END

*D_NET *392 0.00176457
*CONN
*I *2873:A1 I *D sky130_fd_sc_hd__o21ai_1
*I *2874:A1 I *D sky130_fd_sc_hd__a21o_1
*I *2989:A1 I *D sky130_fd_sc_hd__mux2_1
*I *3128:Q O *D sky130_fd_sc_hd__dfrtp_1
*CAP
1 *2873:A1 2.42211e-05
2 *2874:A1 8.88903e-05
3 *2989:A1 0
4 *3128:Q 0.000108109
5 *392:27 0.000533796
6 *392:12 0.000528794
7 *2873:A1 *424:49 0
8 *392:12 *424:49 7.01303e-05
9 *392:27 *424:49 0
10 *2873:B1 *2873:A1 9.09788e-06
11 *2874:B1 *2874:A1 0.000120655
12 *2989:A0 *392:12 4.66826e-05
13 *2989:A0 *392:27 2.93678e-05
14 *2989:S *392:27 4.21174e-05
15 *3005:A1 *392:12 0
16 *3069:S *392:27 3.16875e-05
17 *194:93 *2873:A1 2.61115e-05
18 *194:93 *392:27 0.000104913
*RES
1 *3128:Q *392:12 7.265 
2 *392:12 *2989:A1 1.6 
3 *392:12 *392:27 8.57 
4 *392:27 *2874:A1 4.74 
5 *392:27 *2873:A1 4.215 
*END

*D_NET *393 0.00338424
*CONN
*I *2881:A1 I *D sky130_fd_sc_hd__a21o_1
*I *2991:A1 I *D sky130_fd_sc_hd__mux2_1
*I *2880:A1 I *D sky130_fd_sc_hd__o21ai_1
*I *3129:Q O *D sky130_fd_sc_hd__dfrtp_1
*CAP
1 *2881:A1 0.000373486
2 *2991:A1 0.000342204
3 *2880:A1 9.02954e-05
4 *3129:Q 6.21991e-05
5 *393:23 0.00098626
6 *393:6 0.000423064
7 *2991:A1 *401:12 0.000114328
8 *2881:B1 *2880:A1 0.000177017
9 *2900:B1 *2991:A1 3.112e-05
10 *2900:B1 *393:23 3.54721e-05
11 *2992:A *2991:A1 8.46818e-05
12 *3137:D *2881:A1 3.96473e-05
13 *3137:D *393:23 2.69443e-06
14 *3137:RESET_B *2991:A1 2.35512e-05
15 *3196:A *2880:A1 6.67187e-05
16 *199:63 *393:6 3.53974e-05
17 *199:63 *393:23 8.46525e-05
18 *273:76 *2880:A1 2.85135e-05
19 *320:14 *2881:A1 0.000194914
20 *323:32 *2991:A1 4.77807e-05
21 *324:10 *2880:A1 3.75018e-05
22 *346:77 *2991:A1 0.000102738
*RES
1 *3129:Q *393:6 2.395 
2 *393:6 *2880:A1 8.51 
3 *393:6 *393:23 5.81 
4 *393:23 *2991:A1 10.26 
5 *393:23 *2881:A1 8.85 
*END

*D_NET *394 0.001215
*CONN
*I *2882:A1 I *D sky130_fd_sc_hd__o21ai_1
*I *2993:A1 I *D sky130_fd_sc_hd__mux2_1
*I *2883:A1 I *D sky130_fd_sc_hd__a21o_1
*I *3130:Q O *D sky130_fd_sc_hd__dfrtp_1
*CAP
1 *2882:A1 9.80656e-05
2 *2993:A1 0
3 *2883:A1 8.70603e-05
4 *3130:Q 8.59986e-05
5 *394:10 0.000176681
6 *394:6 0.000273685
7 *2883:A1 *426:59 0.000131525
8 *2882:B1 *2882:A1 1.0555e-05
9 *2883:B1 *2882:A1 3.6227e-05
10 *2883:B1 *2883:A1 0.000132821
11 *2886:D *2883:A1 1.56428e-05
12 *348:18 *394:6 4.57056e-05
13 *348:18 *394:10 0.000121029
*RES
1 *3130:Q *394:6 2.74 
2 *394:6 *394:10 1.755 
3 *394:10 *2883:A1 7.685 
4 *394:10 *2993:A1 1.6 
5 *394:6 *2882:A1 7.235 
*END

*D_NET *395 0.00121874
*CONN
*I *2870:A1 I *D sky130_fd_sc_hd__a21o_1
*I *2869:A1 I *D sky130_fd_sc_hd__o21ai_1
*I *2995:A1 I *D sky130_fd_sc_hd__mux2_1
*I *3131:Q O *D sky130_fd_sc_hd__dfrtp_1
*CAP
1 *2870:A1 5.59909e-05
2 *2869:A1 0.000182297
3 *2995:A1 0.000160783
4 *3131:Q 0
5 *395:6 0.000373599
6 *395:4 8.65097e-05
7 *2869:A1 *427:44 3.05373e-05
8 *2869:A1 *427:70 7.84941e-05
9 *2869:A1 *427:72 2.68464e-05
10 *2870:A1 *427:32 4.7695e-05
11 *2870:B1 *2869:A1 0
12 *3047:S *2870:A1 1.17309e-05
13 *3047:S *2995:A1 4.64617e-05
14 *3047:S *395:6 1.4399e-05
15 *194:108 *2869:A1 0
16 *194:108 *2995:A1 7.4027e-05
17 *277:90 *2869:A1 2.937e-05
*RES
1 *3131:Q *395:4 1.6 
2 *395:4 *395:6 0.45 
3 *395:6 *2995:A1 7.955 
4 *395:6 *2869:A1 9.065 
5 *395:4 *2870:A1 2.395 
*END

*D_NET *396 0.00199903
*CONN
*I *2872:A1 I *D sky130_fd_sc_hd__a21o_1
*I *2871:A1 I *D sky130_fd_sc_hd__o21ai_1
*I *2997:A1 I *D sky130_fd_sc_hd__mux2_1
*I *3132:Q O *D sky130_fd_sc_hd__dfrtp_1
*CAP
1 *2872:A1 0
2 *2871:A1 0.000147082
3 *2997:A1 4.93477e-05
4 *3132:Q 0.00012015
5 *396:21 0.000268831
6 *396:12 0.000291246
7 *2997:A1 *3013:A0 8.23457e-05
8 *2997:A1 *428:42 0.000233087
9 *396:12 *2891:A2 5.83121e-06
10 *396:12 *404:25 0.000137578
11 *396:12 *428:46 1.07797e-05
12 *396:21 *2872:A2 0.000134701
13 *396:21 *3013:A0 3.57349e-05
14 *396:21 *428:42 8.49205e-05
15 *2872:B1 *2871:A1 7.63204e-05
16 *2897:B *396:21 0.000123589
17 *2997:S *2997:A1 4.40028e-05
18 *2997:S *396:12 4.86642e-05
19 *3132:RESET_B *2871:A1 3.17194e-05
20 *3132:RESET_B *396:12 1.03423e-05
21 *3200:A *2997:A1 4.09662e-05
22 *3200:A *396:21 2.17931e-05
23 *198:142 *2871:A1 0
*RES
1 *3132:Q *396:12 7.94 
2 *396:12 *2997:A1 3.775 
3 *396:12 *396:21 3.21 
4 *396:21 *2871:A1 8.36 
5 *396:21 *2872:A1 1.6 
*END

*D_NET *397 0.000857103
*CONN
*I *2879:A1 I *D sky130_fd_sc_hd__a21o_1
*I *2878:A1 I *D sky130_fd_sc_hd__o21ai_1
*I *2999:A1 I *D sky130_fd_sc_hd__mux2_1
*I *3133:Q O *D sky130_fd_sc_hd__dfrtp_1
*CAP
1 *2879:A1 8.77717e-05
2 *2878:A1 0
3 *2999:A1 8.20509e-05
4 *3133:Q 4.47902e-05
5 *397:14 0.000143715
6 *397:10 0.000194226
7 *2879:A1 *2879:A2 4.77769e-05
8 *2999:A1 *429:67 6.18661e-05
9 *397:14 *2879:A2 1.77945e-05
10 *397:14 *429:61 1.54665e-05
11 *397:14 *429:67 1.54665e-05
12 *2878:B1 *397:10 7.03276e-05
13 *2879:B1 *2879:A1 2.01829e-05
14 *2879:B1 *397:14 6.72833e-06
15 *2999:S *2999:A1 4.89395e-05
*RES
1 *3133:Q *397:10 6.47 
2 *397:10 *397:14 1.41 
3 *397:14 *2999:A1 3.43 
4 *397:14 *2878:A1 1.6 
5 *397:10 *2879:A1 2.74 
*END

*D_NET *398 0.00151241
*CONN
*I *2875:A1 I *D sky130_fd_sc_hd__o21ai_1
*I *2876:A1 I *D sky130_fd_sc_hd__a21o_1
*I *3001:A1 I *D sky130_fd_sc_hd__mux2_1
*I *3134:Q O *D sky130_fd_sc_hd__dfrtp_1
*CAP
1 *2875:A1 0
2 *2876:A1 0.000116833
3 *3001:A1 0.000277671
4 *3134:Q 3.58834e-05
5 *398:23 0.00019962
6 *398:8 0.000396342
7 *2876:A1 *430:26 9.71067e-05
8 *3001:A1 *430:26 0
9 *398:23 *2875:A2 8.53113e-06
10 *2876:B1 *2876:A1 0.000111308
11 *2907:B *2876:A1 9.71067e-05
12 *2907:B *3001:A1 2.97004e-06
13 *2907:B *398:23 4.92014e-05
14 *3001:A0 *3001:A1 4.71087e-05
15 *3065:S *398:8 2.75229e-05
16 *195:48 *3001:A1 4.52004e-05
17 *327:10 *3001:A1 0
18 *327:10 *398:23 0
*RES
1 *3134:Q *398:8 4.05 
2 *398:8 *3001:A1 7.575 
3 *398:8 *398:23 3.635 
4 *398:23 *2876:A1 8.57 
5 *398:23 *2875:A1 1.6 
*END

*D_NET *399 0.00173774
*CONN
*I *3003:A0 I *D sky130_fd_sc_hd__mux2_1
*I *2904:A2 I *D sky130_fd_sc_hd__o21ai_1
*I *2905:A2 I *D sky130_fd_sc_hd__a21o_1
*I *3135:Q O *D sky130_fd_sc_hd__dfrtp_1
*CAP
1 *3003:A0 0
2 *2904:A2 5.64067e-05
3 *2905:A2 2.12122e-05
4 *3135:Q 0.000453057
5 *399:16 0.000154077
6 *399:14 0.000529515
7 *2904:A2 *2905:A1 7.36562e-05
8 *2904:B1 *399:14 0
9 *2905:B1 *2905:A2 2.75145e-05
10 *2905:B1 *399:16 2.0514e-05
11 *3003:A1 *2904:A2 0.000138551
12 *3003:A1 *399:16 8.65905e-05
13 *3135:D *399:14 8.4346e-05
14 *3135:D *399:16 3.64998e-06
15 *3135:RESET_B *399:14 3.19615e-05
16 *207:66 *2904:A2 1.01661e-05
17 *351:25 *2904:A2 8.09021e-06
18 *351:25 *399:14 3.84331e-05
*RES
1 *3135:Q *399:14 11.585 
2 *399:14 *399:16 1.485 
3 *399:16 *2905:A2 2.05 
4 *399:16 *2904:A2 7.49 
5 *399:14 *3003:A0 1.6 
*END

*D_NET *400 0.00227078
*CONN
*I *2894:A2 I *D sky130_fd_sc_hd__a21o_1
*I *2893:A2 I *D sky130_fd_sc_hd__o21ai_1
*I *3005:A0 I *D sky130_fd_sc_hd__mux2_1
*I *3136:Q O *D sky130_fd_sc_hd__dfrtp_1
*CAP
1 *2894:A2 0
2 *2893:A2 0.000169944
3 *3005:A0 5.74738e-05
4 *3136:Q 0.000177248
5 *400:20 0.000312334
6 *400:12 0.000262164
7 *2893:A2 *2893:A1 4.82863e-05
8 *400:12 *424:49 8.30853e-06
9 *400:20 *424:58 0.000164679
10 *2893:B1 *2893:A2 8.65905e-05
11 *2894:B1 *2893:A2 0.000136231
12 *2894:B1 *3005:A0 4.27108e-05
13 *2894:B1 *400:20 0.000196716
14 *2937:D *2893:A2 0.000316415
15 *3005:A1 *2893:A2 3.50033e-05
16 *3005:S *400:12 3.30909e-05
17 *3006:A *2893:A2 4.85893e-05
18 *3136:D *2893:A2 0
19 *3231:A *2893:A2 0.000161529
20 *275:27 *400:12 1.34687e-05
*RES
1 *3136:Q *400:12 8.45 
2 *400:12 *400:20 3 
3 *400:20 *3005:A0 2.665 
4 *400:20 *2893:A2 10.865 
5 *400:12 *2894:A2 1.6 
*END

*D_NET *401 0.00207216
*CONN
*I *3007:A0 I *D sky130_fd_sc_hd__mux2_1
*I *2901:A2 I *D sky130_fd_sc_hd__a21o_1
*I *2900:A2 I *D sky130_fd_sc_hd__o21ai_1
*I *3137:Q O *D sky130_fd_sc_hd__dfrtp_1
*CAP
1 *3007:A0 0
2 *2901:A2 0
3 *2900:A2 0.000193674
4 *3137:Q 0.000238296
5 *401:18 0.000277333
6 *401:12 0.000321956
7 *2900:A2 *425:45 4.93336e-05
8 *2991:A1 *401:12 0.000114328
9 *3008:A *401:18 5.29669e-05
10 *3023:S *2900:A2 0.000197873
11 *3023:S *401:18 9.84125e-05
12 *195:48 *2900:A2 0.000188911
13 *195:48 *401:18 0.000286136
14 *199:63 *401:12 3.65311e-05
15 *199:80 *401:12 1.64056e-05
*RES
1 *3137:Q *401:12 9.32 
2 *401:12 *401:18 3.33 
3 *401:18 *2900:A2 10.655 
4 *401:18 *2901:A2 1.6 
5 *401:12 *3007:A0 1.6 
*END

*D_NET *402 0.00265276
*CONN
*I *2903:A2 I *D sky130_fd_sc_hd__a21o_1
*I *2902:A2 I *D sky130_fd_sc_hd__o21ai_1
*I *3009:A0 I *D sky130_fd_sc_hd__mux2_1
*I *3138:Q O *D sky130_fd_sc_hd__dfrtp_1
*CAP
1 *2903:A2 1.90984e-05
2 *2902:A2 0.000122799
3 *3009:A0 0
4 *3138:Q 0.000214379
5 *402:31 0.000405426
6 *402:16 0.000477908
7 *2902:A2 *426:23 3.64998e-06
8 *2902:A2 *426:32 7.66134e-06
9 *2903:A2 *426:32 0
10 *402:16 *424:28 6.30555e-05
11 *2886:B *402:31 0.000334396
12 *2903:B1 *2902:A2 1.16854e-05
13 *2903:B1 *2903:A2 4.00541e-06
14 *2903:B1 *402:31 7.2911e-05
15 *2906:B *402:31 0.000273277
16 *2958:A *402:31 0
17 *3009:A1 *402:31 0.000274952
18 *3009:S *402:16 1.05476e-05
19 *163:34 *402:31 3.64998e-06
20 *184:16 *2902:A2 3.26889e-05
21 *184:16 *402:31 0.000122331
22 *332:49 *402:16 0.000198339
*RES
1 *3138:Q *402:16 10.13 
2 *402:16 *3009:A0 1.6 
3 *402:16 *402:31 11.935 
4 *402:31 *2902:A2 3.355 
5 *402:31 *2903:A2 1.96 
*END

*D_NET *403 0.00182067
*CONN
*I *2889:A2 I *D sky130_fd_sc_hd__o21ai_1
*I *2890:A2 I *D sky130_fd_sc_hd__a21o_1
*I *3011:A0 I *D sky130_fd_sc_hd__mux2_1
*I *3139:Q O *D sky130_fd_sc_hd__dfrtp_1
*CAP
1 *2889:A2 0.000113925
2 *2890:A2 7.53854e-05
3 *3011:A0 0.000227388
4 *3139:Q 0
5 *403:19 0.000287279
6 *403:6 0.000325356
7 *2889:A2 *2890:A1 0.000114649
8 *3011:A0 *2963:A1 0.000117637
9 *3011:A1 *3011:A0 4.99619e-05
10 *3012:A *2889:A2 0
11 *3012:A *403:19 0
12 *194:108 *2889:A2 0.000224501
13 *194:108 *3011:A0 7.23602e-05
14 *194:108 *403:19 0.000184717
15 *277:17 *2890:A2 2.75145e-05
*RES
1 *3139:Q *403:6 3.6 
2 *403:6 *3011:A0 6.99 
3 *403:6 *403:19 2.145 
4 *403:19 *2890:A2 5.025 
5 *403:19 *2889:A2 6.255 
*END

*D_NET *404 0.00215848
*CONN
*I *2892:A2 I *D sky130_fd_sc_hd__a21o_1
*I *3013:A0 I *D sky130_fd_sc_hd__mux2_1
*I *2891:A2 I *D sky130_fd_sc_hd__o21ai_1
*I *3140:Q O *D sky130_fd_sc_hd__dfrtp_1
*CAP
1 *2892:A2 0
2 *3013:A0 0.000296292
3 *2891:A2 3.85896e-05
4 *3140:Q 0.000182282
5 *404:25 0.000355747
6 *404:12 0.000280327
7 *2891:A2 *2871:A2 4.77757e-05
8 *404:12 *428:50 1.34361e-05
9 *404:25 *428:50 0.000181383
10 *2891:B1 *404:12 0
11 *2997:A0 *3013:A0 4.82863e-05
12 *2997:A1 *3013:A0 8.23457e-05
13 *2997:S *3013:A0 0.00017894
14 *2998:A *3013:A0 0
15 *3132:RESET_B *2891:A2 2.26717e-05
16 *3200:A *3013:A0 3.93101e-05
17 *203:60 *3013:A0 0.000131068
18 *275:70 *404:12 3.09164e-05
19 *326:43 *3013:A0 4.99619e-05
20 *396:12 *2891:A2 5.83121e-06
21 *396:12 *404:25 0.000137578
22 *396:21 *3013:A0 3.57349e-05
*RES
1 *3140:Q *404:12 6.555 
2 *404:12 *2891:A2 4.395 
3 *404:12 *404:25 4.145 
4 *404:25 *3013:A0 11.93 
5 *404:25 *2892:A2 1.6 
*END

*D_NET *405 0.00200289
*CONN
*I *2898:A2 I *D sky130_fd_sc_hd__o21ai_1
*I *2899:A2 I *D sky130_fd_sc_hd__a21o_1
*I *3015:A0 I *D sky130_fd_sc_hd__mux2_1
*I *3141:Q O *D sky130_fd_sc_hd__dfrtp_1
*CAP
1 *2898:A2 0.00013364
2 *2899:A2 0
3 *3015:A0 8.76471e-05
4 *3141:Q 3.69588e-05
5 *405:12 0.000131473
6 *405:8 0.000214425
7 *2898:A2 *2898:A1 5.16418e-05
8 *3015:A0 *429:35 0.000233004
9 *405:12 *2898:A1 9.14049e-05
10 *2887:C *405:8 4.66108e-05
11 *3009:S *3015:A0 0.000343566
12 *3015:A1 *3015:A0 8.65905e-05
13 *3141:CLK *2898:A2 0.000198945
14 *3141:RESET_B *2898:A2 4.14369e-05
15 *3141:RESET_B *405:12 0.000112123
16 *163:34 *3015:A0 5.55174e-05
17 *199:118 *3015:A0 8.8266e-05
18 *203:102 *2898:A2 2.23407e-05
19 *203:102 *405:12 1.07797e-05
20 *332:33 *2898:A2 1.65192e-05
*RES
1 *3141:Q *405:8 4.05 
2 *405:8 *405:12 3.38 
3 *405:12 *3015:A0 5.5 
4 *405:12 *2899:A2 1.6 
5 *405:8 *2898:A2 6.555 
*END

*D_NET *406 0.00229827
*CONN
*I *3017:A0 I *D sky130_fd_sc_hd__mux2_1
*I *2896:A2 I *D sky130_fd_sc_hd__a21o_1
*I *2895:A2 I *D sky130_fd_sc_hd__o21ai_1
*I *3142:Q O *D sky130_fd_sc_hd__dfrtp_1
*CAP
1 *3017:A0 0
2 *2896:A2 9.43007e-05
3 *2895:A2 9.96271e-05
4 *3142:Q 0.000338659
5 *406:25 0.000234579
6 *406:8 0.000578564
7 *2896:A2 *2896:A1 5.83121e-06
8 *2895:B1 *2895:A2 4.99619e-05
9 *2896:B1 *2895:A2 4.82919e-05
10 *3017:A1 *406:25 0.000193395
11 *3166:RESET_B *406:25 0.000126159
12 *199:42 *2896:A2 0.000110494
13 *207:43 *2895:A2 6.43122e-05
14 *320:25 *406:25 7.27704e-06
15 *328:14 *2895:A2 7.23533e-05
16 *328:14 *406:25 0.000209179
17 *345:38 *2895:A2 2.67022e-05
18 *345:38 *406:25 3.85797e-05
*RES
1 *3142:Q *406:8 7.155 
2 *406:8 *2895:A2 5.97 
3 *406:8 *406:25 6.95 
4 *406:25 *2896:A2 3.43 
5 *406:25 *3017:A0 1.6 
*END

*D_NET *407 0.00247376
*CONN
*I *2925:A2 I *D sky130_fd_sc_hd__a21o_1
*I *2924:A2 I *D sky130_fd_sc_hd__o21ai_1
*I *3019:A0 I *D sky130_fd_sc_hd__mux2_1
*I *3143:Q O *D sky130_fd_sc_hd__dfrtp_1
*CAP
1 *2925:A2 0.000315903
2 *2924:A2 0
3 *3019:A0 0.000117249
4 *3143:Q 0
5 *407:14 0.000271251
6 *407:4 0.000469904
7 *2925:A2 *2924:A1 0.000170531
8 *2924:B1 *407:14 0.00023424
9 *2925:B1 *3019:A0 0.0001847
10 *2925:B1 *407:14 8.64421e-05
11 *3020:A *3019:A0 0
12 *3143:RESET_B *2925:A2 7.9576e-05
13 *281:143 *2925:A2 3.70572e-05
14 *323:12 *407:14 7.4027e-05
15 *347:8 *2925:A2 4.08514e-05
16 *347:18 *2925:A2 0.000392028
*RES
1 *3143:Q *407:4 1.6 
2 *407:4 *407:14 7.66 
3 *407:14 *3019:A0 4.6 
4 *407:14 *2924:A2 1.6 
5 *407:4 *2925:A2 9.835 
*END

*D_NET *408 0.00252359
*CONN
*I *2913:A2 I *D sky130_fd_sc_hd__o21ai_1
*I *2914:A2 I *D sky130_fd_sc_hd__a21o_1
*I *3021:A0 I *D sky130_fd_sc_hd__mux2_1
*I *3144:Q O *D sky130_fd_sc_hd__dfrtp_1
*CAP
1 *2913:A2 0.000156275
2 *2914:A2 2.78682e-05
3 *3021:A0 0
4 *3144:Q 0.000177375
5 *408:23 0.000831143
6 *408:10 0.000824374
7 *2913:A2 *2914:A1 0.000184779
8 *2914:A2 *2914:A1 3.26889e-05
9 *2913:B1 *2913:A2 4.82919e-05
10 *3021:A1 *408:10 0.000120186
11 *203:14 *408:10 4.70343e-05
12 *322:16 *408:10 7.35729e-05
13 *340:8 *408:10 0
14 *340:8 *408:23 0
*RES
1 *3144:Q *408:10 6.885 
2 *408:10 *3021:A0 3.6 
3 *408:10 *408:23 11.135 
4 *408:23 *2914:A2 2.215 
5 *408:23 *2913:A2 4.465 
*END

*D_NET *409 0.00214863
*CONN
*I *3023:A0 I *D sky130_fd_sc_hd__mux2_1
*I *2920:A2 I *D sky130_fd_sc_hd__o21ai_1
*I *2921:A2 I *D sky130_fd_sc_hd__a21o_1
*I *3145:Q O *D sky130_fd_sc_hd__dfrtp_1
*CAP
1 *3023:A0 0.00014546
2 *2920:A2 0
3 *2921:A2 0.000123286
4 *3145:Q 5.9615e-05
5 *409:12 0.000389447
6 *409:8 0.000471236
7 *2921:A2 *2920:A1 0.000122169
8 *409:12 *2920:A1 4.77807e-05
9 *409:12 *417:8 0.000147905
10 *409:12 *417:14 0.000175782
11 *2940:B1 *2921:A2 3.75882e-06
12 *3040:A *2921:A2 1.14192e-05
13 *3153:CLK *409:12 6.33849e-05
14 *3153:D *2921:A2 3.89366e-05
15 *3153:D *409:12 4.41356e-05
16 *323:22 *3023:A0 8.73389e-06
17 *323:26 *3023:A0 1.34618e-05
18 *323:32 *2921:A2 2.21074e-05
19 *346:67 *2921:A2 2.03719e-05
20 *351:14 *3023:A0 0.000125123
21 *351:14 *409:8 0.000114518
*RES
1 *3145:Q *409:8 4.98 
2 *409:8 *409:12 8.315 
3 *409:12 *2921:A2 8.405 
4 *409:12 *2920:A2 1.6 
5 *409:8 *3023:A0 6.03 
*END

*D_NET *410 0.00235731
*CONN
*I *2922:A2 I *D sky130_fd_sc_hd__o21ai_1
*I *3025:A0 I *D sky130_fd_sc_hd__mux2_1
*I *2923:A2 I *D sky130_fd_sc_hd__a21o_1
*I *3146:Q O *D sky130_fd_sc_hd__dfrtp_1
*CAP
1 *2922:A2 0.000158115
2 *3025:A0 3.0863e-05
3 *2923:A2 0.000157104
4 *3146:Q 2.25496e-05
5 *410:12 0.000304134
6 *410:8 0.000296831
7 *2922:A2 *426:109 0
8 *410:8 *2943:A1 0.000123225
9 *2922:B1 *2922:A2 0.00012657
10 *2923:B1 *2922:A2 0
11 *2923:B1 *2923:A2 8.8266e-05
12 *2923:B1 *410:12 0
13 *2926:C *2923:A2 0.0001615
14 *2926:C *3025:A0 2.0187e-05
15 *2942:B1 *2922:A2 6.6564e-05
16 *2943:B1 *2922:A2 0.000239807
17 *2946:A *2922:A2 0.000136877
18 *3026:A *2923:A2 0.000120819
19 *3041:A1 *2922:A2 2.54692e-05
20 *3041:A1 *410:12 5.93757e-05
21 *3042:A *2922:A2 3.86607e-05
22 *182:12 *410:8 0.000123225
23 *203:125 *2923:A2 2.26018e-05
24 *203:125 *3025:A0 3.45679e-05
*RES
1 *3146:Q *410:8 4.74 
2 *410:8 *410:12 3.89 
3 *410:12 *2923:A2 5.53 
4 *410:12 *3025:A0 2.395 
5 *410:8 *2922:A2 8.175 
*END

*D_NET *411 0.00283011
*CONN
*I *2910:A2 I *D sky130_fd_sc_hd__a21o_1
*I *3027:A0 I *D sky130_fd_sc_hd__mux2_1
*I *2909:A2 I *D sky130_fd_sc_hd__o21ai_1
*I *3147:Q O *D sky130_fd_sc_hd__dfrtp_1
*CAP
1 *2910:A2 0
2 *3027:A0 0.000249339
3 *2909:A2 0
4 *3147:Q 0.000109918
5 *411:23 0.000548482
6 *411:6 0.000409061
7 *3027:A0 *2910:A1 4.89395e-05
8 *3027:A0 *427:96 5.4155e-06
9 *411:23 *2909:A1 0.000184372
10 *2910:B1 *3027:A0 0.000160635
11 *3126:CLK *411:23 3.77639e-05
12 *3126:D *411:23 3.42142e-05
13 *207:149 *411:23 7.06865e-05
14 *276:78 *411:6 0.000239813
15 *276:78 *411:23 3.4687e-05
16 *318:24 *3027:A0 0.000178912
17 *325:31 *3027:A0 0.000453993
18 *325:41 *3027:A0 6.38806e-05
*RES
1 *3147:Q *411:6 3.775 
2 *411:6 *2909:A2 1.6 
3 *411:6 *411:23 8.965 
4 *411:23 *3027:A0 8.62 
5 *411:23 *2910:A2 1.6 
*END

*D_NET *412 0.00189433
*CONN
*I *2912:A2 I *D sky130_fd_sc_hd__a21o_1
*I *3029:A0 I *D sky130_fd_sc_hd__mux2_1
*I *2911:A2 I *D sky130_fd_sc_hd__o21ai_1
*I *3148:Q O *D sky130_fd_sc_hd__dfrtp_1
*CAP
1 *2912:A2 0.000156364
2 *3029:A0 0.000148407
3 *2911:A2 0.000164748
4 *3148:Q 0
5 *412:19 0.000345297
6 *412:4 0.000205274
7 *2912:B1 *2911:A2 5.30673e-05
8 *3148:RESET_B *2911:A2 5.83121e-06
9 *203:6 *2912:A2 0.000353831
10 *203:6 *3029:A0 7.85634e-05
11 *203:14 *3029:A0 7.35729e-05
12 *325:12 *412:19 5.20968e-05
13 *339:38 *412:19 9.54399e-05
14 *339:54 *2911:A2 0.000161837
*RES
1 *3148:Q *412:4 1.6 
2 *412:4 *2911:A2 5.08 
3 *412:4 *412:19 5.125 
4 *412:19 *3029:A0 4.12 
5 *412:19 *2912:A2 5.17 
*END

*D_NET *413 0.00130897
*CONN
*I *2918:A2 I *D sky130_fd_sc_hd__o21ai_1
*I *2919:A2 I *D sky130_fd_sc_hd__a21o_1
*I *3031:A0 I *D sky130_fd_sc_hd__mux2_1
*I *3149:Q O *D sky130_fd_sc_hd__dfrtp_1
*CAP
1 *2918:A2 2.6834e-05
2 *2919:A2 5.79339e-05
3 *3031:A0 4.87493e-05
4 *3149:Q 3.69588e-05
5 *413:12 0.000182476
6 *413:6 0.000139586
7 *2919:A2 *2919:A1 0.000173922
8 *3031:A0 *2919:A1 4.60814e-05
9 *413:12 *427:32 0.000137571
10 *2919:B1 *413:12 0
11 *3031:A1 *3031:A0 4.82863e-05
12 *3031:S *2919:A2 0.000238137
13 *3031:S *3031:A0 4.66108e-05
14 *3149:CLK *2918:A2 4.82919e-05
15 *3149:CLK *413:6 4.66108e-05
16 *203:102 *413:12 0
17 *203:125 *2919:A2 3.09179e-05
*RES
1 *3149:Q *413:6 2.05 
2 *413:6 *413:12 5.635 
3 *413:12 *3031:A0 2.74 
4 *413:12 *2919:A2 4.465 
5 *413:6 *2918:A2 2.05 
*END

*D_NET *414 0.00120919
*CONN
*I *2916:A2 I *D sky130_fd_sc_hd__a21o_1
*I *3033:A0 I *D sky130_fd_sc_hd__mux2_1
*I *2915:A2 I *D sky130_fd_sc_hd__o21ai_1
*I *3150:Q O *D sky130_fd_sc_hd__dfrtp_1
*CAP
1 *2916:A2 7.04663e-05
2 *3033:A0 0
3 *2915:A2 5.0035e-05
4 *3150:Q 3.37037e-05
5 *414:14 0.000179105
6 *414:8 0.00023324
7 *2916:A2 *430:30 0.000132827
8 *414:14 *430:30 7.2718e-05
9 *2916:B1 *2915:A2 0.00011852
10 *3049:A1 *2915:A2 0.000162325
11 *3134:RESET_B *414:14 0
12 *203:60 *414:8 4.82863e-05
13 *203:60 *414:14 6.1357e-05
14 *327:10 *2915:A2 0
15 *328:24 *414:14 4.66108e-05
16 *341:65 *414:14 0
*RES
1 *3150:Q *414:8 4.05 
2 *414:8 *414:14 4.355 
3 *414:14 *2915:A2 7.49 
4 *414:14 *3033:A0 1.6 
5 *414:8 *2916:A2 5.235 
*END

*D_NET *415 0.00154633
*CONN
*I *2944:A2 I *D sky130_fd_sc_hd__o21ai_1
*I *3035:A0 I *D sky130_fd_sc_hd__mux2_1
*I *2945:A2 I *D sky130_fd_sc_hd__a21o_1
*I *3151:Q O *D sky130_fd_sc_hd__dfrtp_1
*CAP
1 *2944:A2 0
2 *3035:A0 0
3 *2945:A2 3.27865e-05
4 *3151:Q 0.000222823
5 *415:18 0.000166836
6 *415:12 0.000356872
7 *415:12 *423:14 7.23533e-05
8 *2945:B1 *2945:A2 0.000199833
9 *2945:B1 *415:18 0.000206787
10 *3041:S *2945:A2 0.000173005
11 *3041:S *415:18 0.000115035
12 *321:10 *415:12 0
*RES
1 *3151:Q *415:12 8.3 
2 *415:12 *415:18 3.15 
3 *415:18 *2945:A2 3.43 
4 *415:18 *3035:A0 1.6 
5 *415:12 *2944:A2 1.6 
*END

*D_NET *416 0.00163896
*CONN
*I *3037:A0 I *D sky130_fd_sc_hd__mux2_1
*I *2934:A2 I *D sky130_fd_sc_hd__a21o_1
*I *2933:A2 I *D sky130_fd_sc_hd__o21ai_1
*I *3152:Q O *D sky130_fd_sc_hd__dfrtp_1
*CAP
1 *3037:A0 0.00024227
2 *2934:A2 0
3 *2933:A2 0.00023395
4 *3152:Q 0
5 *416:8 0.000375899
6 *416:4 0.000384218
7 *2933:A2 *2934:A1 6.37301e-05
8 *2933:A2 *424:90 2.08121e-05
9 *416:8 *2934:A1 0
10 *2933:B1 *2933:A2 1.53172e-05
11 *2934:B1 *2933:A2 0.000133309
12 *3184:D *3037:A0 6.23462e-05
13 *207:118 *3037:A0 0
14 *322:16 *3037:A0 2.0514e-05
15 *322:28 *3037:A0 8.65905e-05
16 *339:91 *3037:A0 0
*RES
1 *3152:Q *416:4 1.6 
2 *416:4 *416:8 2.355 
3 *416:8 *2933:A2 5.905 
4 *416:8 *2934:A2 1.6 
5 *416:4 *3037:A0 9.905 
*END

*D_NET *417 0.00339202
*CONN
*I *3039:A0 I *D sky130_fd_sc_hd__mux2_1
*I *2940:A2 I *D sky130_fd_sc_hd__o21ai_1
*I *2941:A2 I *D sky130_fd_sc_hd__a21o_1
*I *3153:Q O *D sky130_fd_sc_hd__dfrtp_1
*CAP
1 *3039:A0 6.72289e-05
2 *2940:A2 0
3 *2941:A2 0.000140898
4 *3153:Q 0.00041502
5 *417:14 0.000521781
6 *417:8 0.000863133
7 *2941:A2 *2941:A1 2.69153e-05
8 *2941:A2 *425:10 2.98644e-05
9 *2941:A2 *425:12 0.000112589
10 *2941:A2 *425:20 7.1624e-05
11 *2941:A2 *425:124 2.49909e-05
12 *417:14 *2920:A1 1.54665e-05
13 *2920:B1 *417:14 2.747e-05
14 *2921:B1 *2941:A2 9.18556e-05
15 *2940:B1 *2941:A2 2.50751e-05
16 *2941:B1 *417:14 4.77807e-05
17 *3024:A *3039:A0 6.90254e-05
18 *3024:A *417:14 0.000115026
19 *3153:CLK *417:14 8.28018e-06
20 *3153:RESET_B *417:8 0.000118267
21 *207:43 *3039:A0 6.06948e-05
22 *207:43 *417:14 0.000115026
23 *323:32 *2941:A2 8.46818e-05
24 *323:32 *3039:A0 1.56428e-05
25 *409:12 *417:8 0.000147905
26 *409:12 *417:14 0.000175782
*RES
1 *3153:Q *417:8 8.88 
2 *417:8 *417:14 7.97 
3 *417:14 *2941:A2 9.155 
4 *417:14 *2940:A2 1.6 
5 *417:8 *3039:A0 4.92 
*END

*D_NET *418 0.00256723
*CONN
*I *2943:A2 I *D sky130_fd_sc_hd__a21o_1
*I *3041:A0 I *D sky130_fd_sc_hd__mux2_1
*I *2942:A2 I *D sky130_fd_sc_hd__o21ai_1
*I *3154:Q O *D sky130_fd_sc_hd__dfrtp_1
*CAP
1 *2943:A2 0.000194535
2 *3041:A0 7.6748e-06
3 *2942:A2 0.000335362
4 *3154:Q 0.000104369
5 *418:21 0.000252501
6 *418:12 0.000490022
7 *2942:A2 *2942:A1 2.8185e-05
8 *2943:A2 *2943:A1 1.61831e-05
9 *2942:B1 *2942:A2 0.000387891
10 *2942:B1 *3041:A0 7.00889e-06
11 *2942:B1 *418:12 7.23602e-05
12 *2943:B1 *2943:A2 0.000225586
13 *2943:B1 *3041:A0 4.99619e-05
14 *2946:A *2943:A2 4.99619e-05
15 *2946:B *2943:A2 9.50342e-06
16 *2946:C *2943:A2 8.65961e-05
17 *3041:A1 *2943:A2 0
18 *3041:S *2943:A2 0.000163199
19 *3146:RESET_B *2943:A2 0
20 *3146:RESET_B *418:12 7.06865e-05
21 *3154:RESET_B *418:12 1.56428e-05
*RES
1 *3154:Q *418:12 7.265 
2 *418:12 *2942:A2 6.19 
3 *418:12 *418:21 0.87 
4 *418:21 *3041:A0 2.05 
5 *418:21 *2943:A2 10.46 
*END

*D_NET *419 0.00205031
*CONN
*I *2929:A2 I *D sky130_fd_sc_hd__o21ai_1
*I *2930:A2 I *D sky130_fd_sc_hd__a21o_1
*I *3043:A0 I *D sky130_fd_sc_hd__mux2_1
*I *3155:Q O *D sky130_fd_sc_hd__dfrtp_1
*CAP
1 *2929:A2 9.44987e-05
2 *2930:A2 4.25539e-05
3 *3043:A0 1.31277e-05
4 *3155:Q 0.000111265
5 *419:17 0.000312307
6 *419:6 0.000299648
7 *2930:B1 *2929:A2 0.000118901
8 *2930:B1 *2930:A2 4.99619e-05
9 *2930:B1 *419:17 4.16445e-05
10 *3043:A1 *3043:A0 3.26889e-05
11 *3043:A1 *419:6 1.83847e-05
12 *3043:A1 *419:17 1.98666e-05
13 *3044:A *419:6 4.92062e-05
14 *3047:S *2929:A2 0.000427876
15 *3047:S *419:17 0.000347029
16 *3209:A *2929:A2 2.75229e-05
17 *338:28 *419:6 4.38278e-05
*RES
1 *3155:Q *419:6 3.775 
2 *419:6 *3043:A0 1.96 
3 *419:6 *419:17 4.26 
4 *419:17 *2930:A2 2.665 
5 *419:17 *2929:A2 5.5 
*END

*D_NET *420 0.00148951
*CONN
*I *2931:A2 I *D sky130_fd_sc_hd__o21ai_1
*I *3045:A0 I *D sky130_fd_sc_hd__mux2_1
*I *2932:A2 I *D sky130_fd_sc_hd__a21o_1
*I *3156:Q O *D sky130_fd_sc_hd__dfrtp_1
*CAP
1 *2931:A2 5.56117e-05
2 *3045:A0 0
3 *2932:A2 8.79691e-05
4 *3156:Q 7.3254e-05
5 *420:21 6.71531e-05
6 *420:8 0.000172764
7 *2932:A2 *2931:A1 0
8 *2932:A2 *428:109 5.53249e-06
9 *2932:B1 *2931:A2 6.05513e-05
10 *2932:B1 *2932:A2 5.21545e-05
11 *3045:S *2931:A2 8.8266e-05
12 *3045:S *2932:A2 0.000185411
13 *3045:S *420:8 4.82863e-05
14 *3045:S *420:21 8.65961e-05
15 *3156:RESET_B *420:8 1.08758e-05
16 *326:22 *2931:A2 3.83041e-05
17 *326:22 *420:8 0.000141253
18 *326:22 *420:21 7.66083e-05
19 *326:43 *2931:A2 0.000238919
20 *339:54 *2932:A2 0
*RES
1 *3156:Q *420:8 3.445 
2 *420:8 *2932:A2 8 
3 *420:8 *420:21 0.795 
4 *420:21 *3045:A0 1.6 
5 *420:21 *2931:A2 4.12 
*END

*D_NET *421 0.0019466
*CONN
*I *2938:A2 I *D sky130_fd_sc_hd__o21ai_1
*I *2939:A2 I *D sky130_fd_sc_hd__a21o_1
*I *3047:A0 I *D sky130_fd_sc_hd__mux2_1
*I *3157:Q O *D sky130_fd_sc_hd__dfrtp_1
*CAP
1 *2938:A2 8.45678e-05
2 *2939:A2 0
3 *3047:A0 0.000179443
4 *3157:Q 0.000170336
5 *421:14 0.000256069
6 *421:6 0.000331531
7 *2938:A2 *2938:A1 4.47209e-05
8 *3047:A0 *427:32 2.30292e-05
9 *421:14 *2938:A1 8.07661e-05
10 *2938:B1 *2938:A2 4.82863e-05
11 *2939:B1 *421:14 3.31877e-05
12 *3047:A1 *3047:A0 0.000507048
13 *3047:S *3047:A0 3.72916e-05
14 *3189:RESET_B *421:14 3.68682e-05
15 *342:69 *2938:A2 1.03423e-05
16 *342:69 *421:6 0.000103109
*RES
1 *3157:Q *421:6 4.465 
2 *421:6 *421:14 5.995 
3 *421:14 *3047:A0 6.535 
4 *421:14 *2939:A2 1.6 
5 *421:6 *2938:A2 3.085 
*END

*D_NET *422 0.00155566
*CONN
*I *2936:A2 I *D sky130_fd_sc_hd__a21o_1
*I *3049:A0 I *D sky130_fd_sc_hd__mux2_1
*I *2935:A2 I *D sky130_fd_sc_hd__o21ai_1
*I *3158:Q O *D sky130_fd_sc_hd__dfrtp_1
*CAP
1 *2936:A2 8.22564e-05
2 *3049:A0 4.84171e-05
3 *2935:A2 0
4 *3158:Q 0.00020001
5 *422:21 0.00016862
6 *422:12 0.000237957
7 *422:12 *2935:A1 9.50342e-06
8 *2935:B1 *422:12 0.000162412
9 *2936:B1 *2936:A2 5.72004e-05
10 *3049:A1 *2936:A2 0.000183036
11 *3049:A1 *422:12 6.17895e-06
12 *3204:A *3049:A0 4.99619e-05
13 *3204:A *422:12 0
14 *3204:A *422:21 6.6564e-05
15 *198:29 *422:12 4.99619e-05
16 *207:22 *3049:A0 8.8266e-05
17 *207:43 *3049:A0 2.55546e-05
18 *207:43 *422:21 0.000119762
19 *341:10 *422:12 0
20 *341:49 *2936:A2 0
21 *341:49 *422:12 0
*RES
1 *3158:Q *422:12 9.47 
2 *422:12 *2935:A2 1.6 
3 *422:12 *422:21 1.5 
4 *422:21 *3049:A0 3.1 
5 *422:21 *2936:A2 7.745 
*END

*D_NET *423 0.0118689
*CONN
*I *2951:A0 I *D sky130_fd_sc_hd__mux2_1
*I *2944:A1 I *D sky130_fd_sc_hd__o21ai_1
*I *2924:A1 I *D sky130_fd_sc_hd__o21ai_1
*I *2925:A1 I *D sky130_fd_sc_hd__a21o_1
*I *2884:A2 I *D sky130_fd_sc_hd__o21ai_1
*I *2885:A2 I *D sky130_fd_sc_hd__a21o_1
*I *2953:A1 I *D sky130_fd_sc_hd__mux2_1
*I *2904:A1 I *D sky130_fd_sc_hd__o21ai_1
*I *2905:A1 I *D sky130_fd_sc_hd__a21o_1
*I *2945:A1 I *D sky130_fd_sc_hd__a21o_1
*I *3115:Q O *D sky130_fd_sc_hd__dfrtp_4
*CAP
1 *2951:A0 0.000179142
2 *2944:A1 0
3 *2924:A1 0.000446525
4 *2925:A1 3.69588e-05
5 *2884:A2 6.00124e-05
6 *2885:A2 2.08101e-05
7 *2953:A1 0.000384788
8 *2904:A1 1.01446e-05
9 *2905:A1 5.01804e-05
10 *2945:A1 6.22102e-05
11 *3115:Q 8.91125e-05
12 *423:102 0.000483484
13 *423:69 0.000459863
14 *423:63 0.000753589
15 *423:39 0.00043753
16 *423:31 0.0011311
17 *423:29 0.00074295
18 *423:18 0.00095234
19 *423:14 0.000706945
20 *423:8 0.000713433
21 *2884:A1 *2884:A2 0.000183043
22 *2885:A1 *2953:A1 2.30292e-05
23 *2885:A1 *423:69 2.05056e-05
24 *2885:B1 *2953:A1 7.58604e-05
25 *2904:A2 *2905:A1 7.36562e-05
26 *2925:A2 *2924:A1 0.000170531
27 *2925:B1 *423:29 4.14369e-05
28 *2925:B1 *423:31 9.37731e-05
29 *2925:B1 *423:63 1.4389e-05
30 *2926:D *423:29 0
31 *2945:B1 *2945:A1 8.40213e-05
32 *2945:B1 *423:14 8.65905e-05
33 *2945:B1 *423:18 0.000316423
34 *2946:B *2884:A2 0.000226848
35 *2946:B *2953:A1 0
36 *2946:B *423:69 0.000114492
37 *2950:A *2904:A1 2.75229e-05
38 *2950:A *423:39 4.66742e-05
39 *2951:A1 *2951:A0 0.000465398
40 *2951:S *2951:A0 4.92062e-05
41 *2987:A1 *423:69 5.83121e-06
42 *2988:A *2953:A1 4.41506e-05
43 *2988:A *423:69 2.49909e-05
44 *3003:A1 *423:39 0
45 *3019:S *2924:A1 4.19967e-05
46 *3041:S *423:14 0
47 *3051:A0 *2904:A1 3.74161e-05
48 *3051:A0 *423:39 8.40213e-05
49 *3052:A *2953:A1 0
50 *3100:A *423:29 7.34364e-05
51 *3143:D *423:31 0
52 *3159:CLK *2953:A1 0
53 *3175:CLK *423:29 0.00018471
54 *3183:CLK *423:29 0.000116853
55 *163:20 *2953:A1 0
56 *195:69 *2953:A1 0.000141599
57 *203:140 *423:29 0.000355131
58 *207:66 *2905:A1 0.000136877
59 *207:66 *423:39 5.33085e-05
60 *207:77 *423:14 0
61 *281:143 *2924:A1 4.82919e-05
62 *281:143 *2925:A1 4.66108e-05
63 *321:10 *423:8 0
64 *321:10 *423:14 0
65 *321:12 *423:29 0
66 *321:14 *423:31 0
67 *321:14 *423:39 0
68 *332:60 *2953:A1 4.99619e-05
69 *347:18 *423:29 0
70 *347:18 *423:63 0.000106634
71 *347:80 *423:29 0
72 *391:8 *423:63 0.000238484
73 *391:16 *2884:A2 4.44927e-05
74 *391:16 *2953:A1 1.10198e-05
75 *391:16 *423:69 0.000116165
76 *415:12 *423:14 7.23533e-05
*RES
1 *3115:Q *423:8 4.98 
2 *423:8 *423:14 9.53 
3 *423:14 *423:18 3.825 
4 *423:18 *2945:A1 2.395 
5 *423:18 *423:29 14.345 
6 *423:29 *423:31 2.145 
7 *423:31 *423:39 8.615 
8 *423:39 *2905:A1 7.235 
9 *423:39 *2904:A1 2.05 
10 *423:31 *423:63 12.04 
11 *423:63 *423:69 3.83 
12 *423:69 *2953:A1 12.56 
13 *423:69 *2885:A2 1.96 
14 *423:63 *2884:A2 6.255 
15 *423:29 *423:102 2 
16 *423:102 *2925:A1 2.05 
17 *423:102 *2924:A1 11.57 
18 *423:14 *2944:A1 1.6 
19 *423:8 *2951:A0 8.19 
*END

*D_NET *424 0.0170425
*CONN
*I *2953:A0 I *D sky130_fd_sc_hd__mux2_1
*I *2955:A1 I *D sky130_fd_sc_hd__mux2_1
*I *2873:A2 I *D sky130_fd_sc_hd__o21ai_1
*I *2913:A1 I *D sky130_fd_sc_hd__o21ai_1
*I *2914:A1 I *D sky130_fd_sc_hd__a21o_1
*I *2934:A1 I *D sky130_fd_sc_hd__a21o_1
*I *2933:A1 I *D sky130_fd_sc_hd__o21ai_1
*I *2893:A1 I *D sky130_fd_sc_hd__o21ai_1
*I *2894:A1 I *D sky130_fd_sc_hd__a21o_1
*I *2874:A2 I *D sky130_fd_sc_hd__a21o_1
*I *3116:Q O *D sky130_fd_sc_hd__dfrtp_4
*CAP
1 *2953:A0 0.000137594
2 *2955:A1 0
3 *2873:A2 0
4 *2913:A1 3.11335e-05
5 *2914:A1 9.28887e-05
6 *2934:A1 7.57433e-05
7 *2933:A1 0
8 *2893:A1 0.000129825
9 *2894:A1 0
10 *2874:A2 3.66459e-05
11 *3116:Q 0.000188449
12 *424:107 0.000370414
13 *424:90 0.000422796
14 *424:81 0.000854782
15 *424:58 0.00123972
16 *424:49 0.00107742
17 *424:41 0.00084906
18 *424:28 0.00293903
19 *424:16 0.00277496
20 *424:14 0.000326043
21 *424:28 *2955:A0 0.000717857
22 *2873:A1 *424:49 0
23 *2873:B1 *424:49 8.52845e-05
24 *2874:B1 *2874:A2 9.35611e-05
25 *2874:B1 *424:28 2.30292e-05
26 *2874:B1 *424:41 3.76577e-05
27 *2877:A *424:28 8.8266e-05
28 *2877:C *424:28 0.000162311
29 *2877:D *424:28 0.000475808
30 *2887:B *424:28 0.000188727
31 *2893:A2 *2893:A1 4.82863e-05
32 *2894:B1 *424:58 1.94574e-05
33 *2906:D *2953:A0 3.70572e-05
34 *2913:A2 *2914:A1 0.000184779
35 *2913:B1 *2914:A1 4.66108e-05
36 *2913:B1 *424:107 2.92496e-05
37 *2914:A2 *2914:A1 3.26889e-05
38 *2914:B1 *2914:A1 0.000124569
39 *2917:B *424:107 0.000186415
40 *2917:C *2913:A1 5.83121e-06
41 *2917:C *2914:A1 3.83194e-05
42 *2933:A2 *2934:A1 6.37301e-05
43 *2933:A2 *424:90 2.08121e-05
44 *2933:B1 *424:90 4.82863e-05
45 *2934:B1 *2934:A1 6.72833e-06
46 *2934:B1 *424:90 5.66565e-05
47 *2937:C *424:81 1.42674e-05
48 *2937:C *424:90 0.00015639
49 *2937:D *2893:A1 2.30292e-05
50 *2954:A *424:28 9.91257e-05
51 *2955:S *2953:A0 6.47594e-05
52 *2956:A *2953:A0 0
53 *3005:A1 *424:49 0
54 *3006:A *2893:A1 0.000100323
55 *3069:S *424:49 0
56 *3117:D *2953:A0 9.766e-05
57 *3117:D *424:14 5.69546e-05
58 *3136:D *2893:A1 3.59997e-05
59 *3138:RESET_B *424:28 7.91705e-05
60 *3168:CLK *424:81 7.35729e-05
61 *3168:D *424:81 8.73389e-06
62 *3168:RESET_B *424:58 1.55562e-05
63 *195:69 *2953:A0 0
64 *195:69 *424:14 1.37895e-05
65 *207:118 *424:107 0.000191932
66 *207:137 *424:107 0.00028781
67 *279:52 *424:14 0.000198945
68 *295:10 *2893:A1 3.90349e-05
69 *332:49 *424:28 0.000201811
70 *332:60 *2953:A0 6.36947e-05
71 *362:24 *424:107 0.000545249
72 *392:12 *424:49 7.01303e-05
73 *392:27 *424:49 0
74 *400:12 *424:49 8.30853e-06
75 *400:20 *424:58 0.000164679
76 *402:16 *424:28 6.30555e-05
77 *416:8 *2934:A1 0
*RES
1 *3116:Q *424:14 7.365 
2 *424:14 *424:16 2 
3 *424:16 *424:28 41.325 
4 *424:28 *2874:A2 2.755 
5 *424:28 *424:41 2.19 
6 *424:41 *424:49 14.95 
7 *424:49 *2894:A1 1.6 
8 *424:49 *424:58 5.55 
9 *424:58 *2893:A1 8.39 
10 *424:58 *424:81 9.72 
11 *424:81 *2933:A1 1.6 
12 *424:81 *424:90 2.79 
13 *424:90 *2934:A1 3.115 
14 *424:90 *424:107 14.05 
15 *424:107 *2914:A1 4.945 
16 *424:107 *2913:A1 2.05 
17 *424:41 *2873:A2 1.6 
18 *424:16 *2955:A1 1.6 
19 *424:14 *2953:A0 6.81 
*END

*D_NET *425 0.0127488
*CONN
*I *2920:A1 I *D sky130_fd_sc_hd__o21ai_1
*I *2921:A1 I *D sky130_fd_sc_hd__a21o_1
*I *2941:A1 I *D sky130_fd_sc_hd__a21o_1
*I *2940:A1 I *D sky130_fd_sc_hd__o21ai_1
*I *2880:A2 I *D sky130_fd_sc_hd__o21ai_1
*I *2957:A1 I *D sky130_fd_sc_hd__mux2_1
*I *2955:A0 I *D sky130_fd_sc_hd__mux2_1
*I *2881:A2 I *D sky130_fd_sc_hd__a21o_1
*I *2901:A1 I *D sky130_fd_sc_hd__a21o_1
*I *2900:A1 I *D sky130_fd_sc_hd__o21ai_1
*I *3117:Q O *D sky130_fd_sc_hd__dfrtp_4
*CAP
1 *2920:A1 0.000109961
2 *2921:A1 0
3 *2941:A1 6.10343e-05
4 *2940:A1 0
5 *2880:A2 0
6 *2957:A1 0.000102245
7 *2955:A0 0.000408862
8 *2881:A2 6.43212e-05
9 *2901:A1 9.18528e-05
10 *2900:A1 0.00010303
11 *3117:Q 0.000431111
12 *425:124 0.000227346
13 *425:115 0.00017842
14 *425:73 0.000700737
15 *425:49 0.00023318
16 *425:45 0.000499681
17 *425:28 0.000733859
18 *425:20 0.00132713
19 *425:12 0.000983695
20 *425:10 0.000485462
21 *2880:B1 *425:20 0.000313852
22 *2881:B1 *2881:A2 3.57349e-05
23 *2881:B1 *2901:A1 0.000111293
24 *2881:B1 *425:20 4.82863e-05
25 *2881:B1 *425:49 4.77769e-05
26 *2886:B *2957:A1 0.000216637
27 *2886:B *425:49 4.80285e-05
28 *2886:B *425:73 0.000630491
29 *2900:A2 *425:45 4.93336e-05
30 *2900:B1 *2900:A1 3.11215e-05
31 *2906:B *2901:A1 4.9334e-05
32 *2906:B *2957:A1 9.57002e-05
33 *2906:B *425:45 7.35694e-05
34 *2906:B *425:73 0.000326251
35 *2921:A2 *2920:A1 0.000122169
36 *2921:B1 *2920:A1 2.23253e-05
37 *2921:B1 *425:10 1.10951e-05
38 *2926:B *425:10 0.000616122
39 *2940:B1 *425:20 2.99548e-05
40 *2941:A2 *2941:A1 2.69153e-05
41 *2941:A2 *425:10 2.98644e-05
42 *2941:A2 *425:12 0.000112589
43 *2941:A2 *425:20 7.1624e-05
44 *2941:A2 *425:124 2.49909e-05
45 *2946:B *425:10 0
46 *2954:A *2955:A0 0.000163199
47 *2955:S *2955:A0 4.00541e-06
48 *2956:A *2955:A0 3.00381e-05
49 *3009:A1 *2957:A1 0.000248699
50 *3009:A1 *425:73 9.30717e-05
51 *3010:A *2957:A1 1.91597e-05
52 *3137:CLK *2900:A1 5.08762e-05
53 *3138:CLK *2955:A0 0.000352156
54 *3138:D *2955:A0 6.16774e-05
55 *3145:CLK *425:12 2.07338e-05
56 *3145:CLK *425:20 0.000176381
57 *3153:CLK *2920:A1 8.35157e-05
58 *3196:A *425:28 0.000113022
59 *195:48 *2901:A1 4.77769e-05
60 *273:76 *425:28 8.65994e-05
61 *273:76 *425:73 0.000142931
62 *320:14 *2881:A2 1.91597e-05
63 *320:14 *425:49 8.34745e-05
64 *323:32 *2920:A1 1.42598e-05
65 *323:32 *2941:A1 1.54665e-05
66 *323:32 *425:124 4.17267e-05
67 *324:10 *2901:A1 1.06761e-05
68 *332:49 *2955:A0 8.73389e-06
69 *332:60 *2957:A1 3.26889e-05
70 *346:67 *425:10 0.000160635
71 *409:12 *2920:A1 4.77807e-05
72 *417:14 *2920:A1 1.54665e-05
73 *424:28 *2955:A0 0.000717857
*RES
1 *3117:Q *425:10 13.605 
2 *425:10 *425:12 1.38 
3 *425:12 *425:20 17.12 
4 *425:20 *425:28 8.5925 
5 *425:28 *2900:A1 5.4375 
6 *425:28 *425:45 4.0575 
7 *425:45 *425:49 3.83 
8 *425:49 *2901:A1 7.685 
9 *425:49 *2881:A2 2.755 
10 *425:45 *425:73 7.755 
11 *425:73 *2955:A0 14.79 
12 *425:73 *2957:A1 7.41 
13 *425:20 *2880:A2 1.6 
14 *425:12 *2940:A1 3.6 
15 *425:10 *425:115 2 
16 *425:115 *2941:A1 2.395 
17 *425:115 *425:124 1.485 
18 *425:124 *2921:A1 1.6 
19 *425:124 *2920:A1 8.225 
*END

*D_NET *426 0.00867264
*CONN
*I *2903:A1 I *D sky130_fd_sc_hd__a21o_1
*I *2922:A1 I *D sky130_fd_sc_hd__o21ai_1
*I *2942:A1 I *D sky130_fd_sc_hd__o21ai_1
*I *2943:A1 I *D sky130_fd_sc_hd__a21o_1
*I *2923:A1 I *D sky130_fd_sc_hd__a21o_1
*I *2882:A2 I *D sky130_fd_sc_hd__o21ai_1
*I *2959:A1 I *D sky130_fd_sc_hd__mux2_1
*I *2883:A2 I *D sky130_fd_sc_hd__a21o_1
*I *2902:A1 I *D sky130_fd_sc_hd__o21ai_1
*I *2957:A0 I *D sky130_fd_sc_hd__mux2_1
*I *3118:Q O *D sky130_fd_sc_hd__dfrtp_4
*CAP
1 *2903:A1 0
2 *2922:A1 0
3 *2942:A1 8.2706e-05
4 *2943:A1 0.000573659
5 *2923:A1 0
6 *2882:A2 0
7 *2959:A1 0.000173578
8 *2883:A2 6.49027e-05
9 *2902:A1 0
10 *2957:A0 0.000183229
11 *3118:Q 0
12 *426:109 0.000241023
13 *426:90 0.000845256
14 *426:81 0.000546121
15 *426:61 0.000230734
16 *426:59 0.000681823
17 *426:38 0.000461437
18 *426:32 0.000379356
19 *426:23 0.000293473
20 *426:6 0.000302055
21 *2883:A1 *426:59 0.000131525
22 *2883:B1 *2883:A2 4.00541e-06
23 *2883:B1 *426:59 5.86575e-05
24 *2886:B *2957:A0 0
25 *2886:B *426:23 0
26 *2886:B *426:38 0.000419913
27 *2886:B *426:59 2.23407e-05
28 *2886:D *2883:A2 4.66108e-05
29 *2886:D *426:38 0.000499076
30 *2886:D *426:59 2.92496e-05
31 *2902:A2 *426:23 3.64998e-06
32 *2902:A2 *426:32 7.66134e-06
33 *2902:B1 *426:23 1.89685e-05
34 *2902:B1 *426:38 5.00612e-05
35 *2902:B1 *426:59 0.000125976
36 *2903:A2 *426:32 0
37 *2903:B1 *426:32 7.41429e-05
38 *2903:B1 *426:38 4.99619e-05
39 *2906:B *2957:A0 4.82863e-05
40 *2922:A2 *426:109 0
41 *2923:B1 *426:90 0
42 *2923:B1 *426:109 0
43 *2926:A *2883:A2 8.23457e-05
44 *2926:A *426:59 0
45 *2942:A2 *2942:A1 2.8185e-05
46 *2942:B1 *2942:A1 2.49909e-05
47 *2943:A2 *2943:A1 1.61831e-05
48 *2943:B1 *2942:A1 4.82919e-05
49 *2946:A *2943:A1 0.000129552
50 *2946:C *2943:A1 1.33293e-05
51 *2951:S *2959:A1 0.000185185
52 *2951:S *426:61 9.31543e-05
53 *2951:S *426:81 0.000393929
54 *3010:A *2957:A0 6.07575e-06
55 *3138:D *2957:A0 8.53113e-06
56 *3199:A *2883:A2 3.64998e-06
57 *3199:A *426:59 5.59607e-05
58 *182:12 *2943:A1 0.000198203
59 *184:16 *426:23 0
60 *320:8 *426:81 8.61667e-05
61 *320:8 *426:90 9.67225e-05
62 *320:8 *426:109 0.000120092
63 *324:31 *2957:A0 7.45302e-05
64 *324:31 *426:23 0.000100536
65 *332:60 *2957:A0 8.77516e-05
66 *332:97 *2959:A1 4.66108e-05
67 *410:8 *2943:A1 0.000123225
*RES
1 *3118:Q *426:6 3.6 
2 *426:6 *2957:A0 6.72 
3 *426:6 *426:23 4.595 
4 *426:23 *2902:A1 1.6 
5 *426:23 *426:32 2.445 
6 *426:32 *426:38 9.695 
7 *426:38 *2883:A2 5.01 
8 *426:38 *426:59 6.845 
9 *426:59 *426:61 1.14 
10 *426:61 *2959:A1 4.48 
11 *426:61 *2882:A2 1.6 
12 *426:59 *426:81 10.205 
13 *426:81 *2923:A1 3.6 
14 *426:81 *426:90 2.145 
15 *426:90 *2943:A1 11.475 
16 *426:90 *426:109 5.21 
17 *426:109 *2942:A1 3.085 
18 *426:109 *2922:A1 1.6 
19 *426:32 *2903:A1 1.6 
*END

*D_NET *427 0.0165905
*CONN
*I *2959:A0 I *D sky130_fd_sc_hd__mux2_1
*I *2870:A2 I *D sky130_fd_sc_hd__a21o_1
*I *2869:A2 I *D sky130_fd_sc_hd__o21ai_1
*I *2929:A1 I *D sky130_fd_sc_hd__o21ai_1
*I *2930:A1 I *D sky130_fd_sc_hd__a21o_1
*I *2909:A1 I *D sky130_fd_sc_hd__o21ai_1
*I *2961:A1 I *D sky130_fd_sc_hd__mux2_1
*I *2910:A1 I *D sky130_fd_sc_hd__a21o_1
*I *2889:A1 I *D sky130_fd_sc_hd__o21ai_1
*I *2890:A1 I *D sky130_fd_sc_hd__a21o_1
*I *3119:Q O *D sky130_fd_sc_hd__dfrtp_4
*CAP
1 *2959:A0 0
2 *2870:A2 0
3 *2869:A2 1.41956e-05
4 *2929:A1 9.70112e-05
5 *2930:A1 0
6 *2909:A1 0.000305061
7 *2961:A1 0.000365639
8 *2910:A1 6.01825e-05
9 *2889:A1 0
10 *2890:A1 9.73937e-05
11 *3119:Q 0.000287324
12 *427:105 0.0006707
13 *427:96 0.000434517
14 *427:78 0.000839799
15 *427:72 0.0010154
16 *427:70 0.00057892
17 *427:44 0.000834033
18 *427:34 0.000848437
19 *427:32 0.00222598
20 *427:16 0.00251331
21 *427:32 *2918:A1 0.000226513
22 *427:32 *429:109 9.10613e-05
23 *2869:A1 *427:44 3.05373e-05
24 *2869:A1 *427:70 7.84941e-05
25 *2869:A1 *427:72 2.68464e-05
26 *2869:B1 *427:70 1.14169e-05
27 *2870:A1 *427:32 4.7695e-05
28 *2870:B1 *427:32 3.2199e-05
29 *2870:B1 *427:70 6.05715e-05
30 *2877:A *427:32 0.00013427
31 *2886:A *427:32 0.00027303
32 *2889:A2 *2890:A1 0.000114649
33 *2889:B1 *427:44 0.000236511
34 *2918:B1 *427:32 7.36562e-05
35 *2926:A *427:16 4.5294e-05
36 *2929:B1 *2929:A1 4.19967e-05
37 *2937:A *2909:A1 0.000104097
38 *2937:A *2961:A1 0.000166537
39 *2946:A *427:32 0.000226022
40 *2960:A *427:32 8.64565e-05
41 *2980:A1 *2961:A1 5.53249e-06
42 *2985:A0 *427:96 9.55736e-05
43 *2986:A *2909:A1 4.28112e-06
44 *2986:A *2961:A1 3.72007e-05
45 *2996:A *427:72 7.35729e-05
46 *3027:A0 *2910:A1 4.89395e-05
47 *3027:A0 *427:96 5.4155e-06
48 *3047:A0 *427:32 2.30292e-05
49 *3047:A1 *427:32 0.000732634
50 *3047:S *427:32 8.06152e-05
51 *3048:A *427:32 4.92062e-05
52 *3119:D *427:32 0.00012398
53 *3126:CLK *2909:A1 8.40269e-05
54 *3126:D *2909:A1 1.28996e-05
55 *3126:D *2961:A1 2.41307e-05
56 *3131:D *427:72 4.66108e-05
57 *3139:CLK *2961:A1 4.94457e-05
58 *3147:CLK *2909:A1 0
59 *3269:A *427:32 5.00526e-05
60 *194:108 *427:44 0
61 *202:44 *2929:A1 4.40812e-05
62 *203:102 *427:32 0
63 *203:125 *427:16 5.8486e-05
64 *206:61 *427:78 0
65 *206:61 *427:96 0
66 *207:137 *2961:A1 0
67 *207:149 *2909:A1 7.93841e-05
68 *273:50 *2961:A1 8.81365e-05
69 *276:78 *2909:A1 8.08498e-05
70 *277:17 *2890:A1 4.82863e-05
71 *277:90 *427:70 2.04416e-05
72 *277:90 *427:72 0.000109976
73 *318:24 *427:96 8.51072e-05
74 *318:28 *427:96 8.33066e-06
75 *325:41 *2910:A1 1.32026e-05
76 *325:41 *427:96 0.000136116
77 *338:28 *2909:A1 0.00019637
78 *343:113 *427:96 0.000207092
79 *343:120 *427:78 8.34348e-05
80 *343:120 *427:96 7.55391e-05
81 *348:70 *427:16 9.08126e-05
82 *411:23 *2909:A1 0.000184372
83 *413:12 *427:32 0.000137571
*RES
1 *3119:Q *427:16 10.055 
2 *427:16 *427:32 39.22 
3 *427:32 *427:34 2 
4 *427:34 *427:44 13.685 
5 *427:44 *2890:A1 7.43 
6 *427:44 *2889:A1 1.6 
7 *427:34 *427:70 4.79 
8 *427:70 *427:72 7.005 
9 *427:72 *427:78 8.825 
10 *427:78 *427:96 10.355 
11 *427:96 *2910:A1 2.395 
12 *427:96 *427:105 2 
13 *427:105 *2961:A1 11.655 
14 *427:105 *2909:A1 10.68 
15 *427:78 *2930:A1 3.6 
16 *427:72 *2929:A1 7.595 
17 *427:70 *2869:A2 1.96 
18 *427:32 *2870:A2 1.6 
19 *427:16 *2959:A0 1.6 
*END

*D_NET *428 0.0150669
*CONN
*I *2963:A1 I *D sky130_fd_sc_hd__mux2_1
*I *2932:A1 I *D sky130_fd_sc_hd__a21o_1
*I *2911:A1 I *D sky130_fd_sc_hd__o21ai_1
*I *2912:A1 I *D sky130_fd_sc_hd__a21o_1
*I *2892:A1 I *D sky130_fd_sc_hd__a21o_1
*I *2872:A2 I *D sky130_fd_sc_hd__a21o_1
*I *2871:A2 I *D sky130_fd_sc_hd__o21ai_1
*I *2891:A1 I *D sky130_fd_sc_hd__o21ai_1
*I *2931:A1 I *D sky130_fd_sc_hd__o21ai_1
*I *2961:A0 I *D sky130_fd_sc_hd__mux2_1
*I *3120:Q O *D sky130_fd_sc_hd__dfrtp_4
*CAP
1 *2963:A1 0.00043095
2 *2932:A1 0
3 *2911:A1 9.00237e-05
4 *2912:A1 7.405e-05
5 *2892:A1 0
6 *2872:A2 8.11893e-05
7 *2871:A2 0.000235092
8 *2891:A1 0
9 *2931:A1 0.000121258
10 *2961:A0 0.000131804
11 *3120:Q 0
12 *428:109 0.000181859
13 *428:94 0.000344548
14 *428:50 0.000353397
15 *428:46 0.000231381
16 *428:42 0.000978727
17 *428:29 0.00113526
18 *428:27 0.00139807
19 *428:16 0.00153211
20 *428:4 0.000679014
21 *2963:A1 *2963:A0 4.82863e-05
22 *2891:A2 *2871:A2 4.77757e-05
23 *2892:B1 *428:46 5.18317e-06
24 *2892:B1 *428:50 7.0687e-05
25 *2912:B1 *2911:A1 1.47256e-05
26 *2912:B1 *428:109 9.37731e-05
27 *2931:B1 *2931:A1 1.22762e-05
28 *2932:A2 *2931:A1 0
29 *2932:A2 *428:109 5.53249e-06
30 *2932:B1 *2931:A1 0
31 *2932:B1 *428:109 8.53113e-06
32 *2933:B1 *428:27 0
33 *2937:A *428:27 0.000490627
34 *2937:B *2931:A1 2.97004e-06
35 *2937:B *428:27 0.000287639
36 *2937:B *428:29 4.11198e-05
37 *2937:B *428:109 0
38 *2937:C *428:27 7.89689e-05
39 *2947:B *428:27 0
40 *2964:A *2963:A1 0.000121817
41 *2997:A0 *428:42 0.0001249
42 *2997:A1 *428:42 0.000233087
43 *2997:S *428:46 6.23541e-06
44 *2998:A *428:42 0.000461941
45 *3011:A0 *2963:A1 0.000117637
46 *3011:A1 *2963:A1 0.000315527
47 *3045:S *428:109 8.08153e-06
48 *3085:A0 *428:27 3.86607e-05
49 *3132:RESET_B *2871:A2 0.000161526
50 *3139:CLK *2961:A0 0.00022874
51 *3139:CLK *428:16 0.000311294
52 *3160:CLK *428:16 0
53 *3200:A *2872:A2 0.000234086
54 *3200:A *428:42 2.10673e-05
55 *163:34 *428:27 7.4027e-05
56 *202:27 *428:27 0
57 *203:6 *2912:A1 6.71882e-05
58 *203:6 *428:94 0.000182343
59 *206:29 *2931:A1 8.97832e-05
60 *206:40 *2931:A1 1.52945e-05
61 *206:40 *428:27 0.000436807
62 *206:40 *428:29 4.40899e-05
63 *206:61 *428:16 0.000117832
64 *207:22 *428:42 7.5919e-05
65 *207:105 *2911:A1 3.96737e-05
66 *207:105 *428:42 0.00023468
67 *207:105 *428:109 4.82863e-05
68 *207:118 *428:109 7.21296e-06
69 *332:20 *2963:A1 0.00118277
70 *332:20 *428:16 2.11084e-05
71 *332:20 *428:27 6.18832e-05
72 *343:37 *2963:A1 4.43682e-05
73 *343:57 *2963:A1 0.000164874
74 *343:57 *428:16 4.82919e-05
75 *343:113 *428:27 9.37731e-05
76 *396:12 *428:46 1.07797e-05
77 *396:21 *2872:A2 0.000134701
78 *396:21 *428:42 8.49205e-05
79 *404:12 *428:50 1.34361e-05
80 *404:25 *428:50 0.000181383
*RES
1 *3120:Q *428:4 1.6 
2 *428:4 *428:16 9.055 
3 *428:16 *2961:A0 3.775 
4 *428:16 *428:27 30.41 
5 *428:27 *428:29 1.38 
6 *428:29 *2931:A1 6.51 
7 *428:29 *428:42 14.87 
8 *428:42 *428:46 2.615 
9 *428:46 *428:50 4.4 
10 *428:50 *2891:A1 1.6 
11 *428:50 *2871:A2 5.65 
12 *428:46 *2872:A2 6.495 
13 *428:42 *2892:A1 1.6 
14 *428:27 *428:94 5.225 
15 *428:94 *2912:A1 2.74 
16 *428:94 *428:109 6.085 
17 *428:109 *2911:A1 3.46 
18 *428:109 *2932:A1 1.6 
19 *428:4 *2963:A1 16.315 
*END

*D_NET *429 0.0134676
*CONN
*I *2963:A0 I *D sky130_fd_sc_hd__mux2_1
*I *2918:A1 I *D sky130_fd_sc_hd__o21ai_1
*I *2919:A1 I *D sky130_fd_sc_hd__a21o_1
*I *2879:A2 I *D sky130_fd_sc_hd__a21o_1
*I *2878:A2 I *D sky130_fd_sc_hd__o21ai_1
*I *2938:A1 I *D sky130_fd_sc_hd__o21ai_1
*I *2939:A1 I *D sky130_fd_sc_hd__a21o_1
*I *2899:A1 I *D sky130_fd_sc_hd__a21o_1
*I *2898:A1 I *D sky130_fd_sc_hd__o21ai_1
*I *2965:A1 I *D sky130_fd_sc_hd__mux2_1
*I *3121:Q O *D sky130_fd_sc_hd__dfrtp_4
*CAP
1 *2963:A0 0.00020902
2 *2918:A1 0.000116361
3 *2919:A1 0.000295335
4 *2879:A2 0.000112023
5 *2878:A2 0
6 *2938:A1 0.000243811
7 *2939:A1 0
8 *2899:A1 0
9 *2898:A1 7.49645e-05
10 *2965:A1 0.000131086
11 *3121:Q 0
12 *429:109 0.000481024
13 *429:67 0.000966173
14 *429:61 0.000928924
15 *429:57 0.000318585
16 *429:55 0.000555229
17 *429:35 0.000134056
18 *429:31 0.000610646
19 *429:18 0.000988053
20 *429:6 0.00100033
21 *2879:A1 *2879:A2 4.77769e-05
22 *2879:B1 *2879:A2 6.99026e-05
23 *2879:B1 *429:61 0.000226749
24 *2887:B *2963:A0 2.4997e-05
25 *2887:B *429:18 0.000111462
26 *2887:C *2898:A1 0.000122331
27 *2898:A2 *2898:A1 5.16418e-05
28 *2907:C *2965:A1 8.8266e-05
29 *2919:A2 *2919:A1 0.000173922
30 *2919:B1 *2919:A1 6.72833e-06
31 *2938:A2 *2938:A1 4.47209e-05
32 *2938:B1 *2938:A1 6.48789e-05
33 *2939:B1 *2938:A1 4.93884e-05
34 *2949:A *2965:A1 4.93919e-05
35 *2949:A *429:18 0.000245591
36 *2949:A *429:31 0.000149071
37 *2949:A *429:55 0.000559753
38 *2949:B *429:18 3.81908e-06
39 *2949:D *2963:A0 5.00699e-05
40 *2963:A1 *2963:A0 4.82863e-05
41 *2999:A0 *429:67 0
42 *2999:A1 *429:67 6.18661e-05
43 *2999:S *429:67 0.000159566
44 *3009:S *429:35 2.05056e-05
45 *3015:A0 *429:35 0.000233004
46 *3031:A0 *2919:A1 4.60814e-05
47 *3032:A *429:67 5.72004e-05
48 *3047:A1 *429:67 0
49 *3141:CLK *2898:A1 0.000122331
50 *3149:CLK *2918:A1 4.66826e-05
51 *3189:RESET_B *2938:A1 0
52 *3189:RESET_B *2963:A0 0.000183043
53 *3189:RESET_B *429:18 3.09233e-05
54 *3189:RESET_B *429:67 0
55 *3202:A *429:18 0.000136798
56 *3269:A *2918:A1 0.000123602
57 *3269:A *429:55 0.000248176
58 *3269:A *429:109 6.97526e-05
59 *153:24 *429:18 6.52265e-05
60 *163:34 *429:35 0.000268739
61 *182:12 *2918:A1 4.92062e-05
62 *199:118 *429:18 7.06865e-05
63 *203:102 *2898:A1 0.000132842
64 *203:102 *429:55 0
65 *203:125 *2919:A1 3.06569e-06
66 *273:10 *2965:A1 1.92979e-05
67 *283:8 *429:18 0.000313846
68 *327:10 *2965:A1 7.12714e-05
69 *332:20 *2963:A0 1.91597e-05
70 *332:29 *2963:A0 0.000339686
71 *332:33 *2965:A1 6.00871e-05
72 *332:33 *429:31 5.64226e-05
73 *332:33 *429:55 0.00011153
74 *342:69 *2938:A1 7.35813e-05
75 *342:71 *2938:A1 0
76 *342:71 *429:67 0
77 *343:37 *2963:A0 0.000380529
78 *397:14 *2879:A2 1.77945e-05
79 *397:14 *429:61 1.54665e-05
80 *397:14 *429:67 1.54665e-05
81 *405:12 *2898:A1 9.14049e-05
82 *421:14 *2938:A1 8.07661e-05
83 *427:32 *2918:A1 0.000226513
84 *427:32 *429:109 9.10613e-05
*RES
1 *3121:Q *429:6 3.6 
2 *429:6 *429:18 16.27 
3 *429:18 *2965:A1 6.54 
4 *429:18 *429:31 1.89 
5 *429:31 *429:35 4.52 
6 *429:35 *2898:A1 8.375 
7 *429:35 *2899:A1 1.6 
8 *429:31 *429:55 11.835 
9 *429:55 *429:57 2 
10 *429:57 *429:61 3.135 
11 *429:61 *429:67 12.98 
12 *429:67 *2939:A1 3.6 
13 *429:67 *2938:A1 8.31 
14 *429:61 *2878:A2 1.6 
15 *429:57 *2879:A2 4.06 
16 *429:55 *429:109 1.635 
17 *429:109 *2919:A1 7.5 
18 *429:109 *2918:A1 7.41 
19 *429:6 *2963:A0 11.715 
*END

*D_NET *430 0.0104135
*CONN
*I *2965:A0 I *D sky130_fd_sc_hd__mux2_1
*I *2896:A1 I *D sky130_fd_sc_hd__a21o_1
*I *2895:A1 I *D sky130_fd_sc_hd__o21ai_1
*I *2875:A2 I *D sky130_fd_sc_hd__o21ai_1
*I *2876:A2 I *D sky130_fd_sc_hd__a21o_1
*I *2916:A1 I *D sky130_fd_sc_hd__a21o_1
*I *2936:A1 I *D sky130_fd_sc_hd__a21o_1
*I *2915:A1 I *D sky130_fd_sc_hd__o21ai_1
*I *2935:A1 I *D sky130_fd_sc_hd__o21ai_1
*I *3122:Q O *D sky130_fd_sc_hd__dfrtp_4
*CAP
1 *2965:A0 0.000139824
2 *2896:A1 3.75396e-05
3 *2895:A1 0.000203189
4 *2875:A2 0.000132185
5 *2876:A2 0
6 *2916:A1 2.17248e-05
7 *2936:A1 0
8 *2915:A1 0
9 *2935:A1 0.000161846
10 *3122:Q 0.000544593
11 *430:102 0.000910897
12 *430:36 0.000252512
13 *430:30 0.000217494
14 *430:26 0.000698444
15 *430:20 0.000673526
16 *430:16 0.000436444
17 *430:14 0.00096035
18 *430:10 0.000793973
19 *2876:A1 *430:26 9.71067e-05
20 *2876:B1 *430:26 0.000120186
21 *2896:A2 *2896:A1 5.83121e-06
22 *2897:D *2916:A1 8.52972e-05
23 *2897:D *430:26 0
24 *2907:B *2875:A2 0
25 *2907:B *430:26 0.000109221
26 *2916:A2 *430:30 0.000132827
27 *2916:B1 *2916:A1 4.6075e-05
28 *2935:B1 *2935:A1 8.08153e-06
29 *3001:A0 *430:26 0.00018012
30 *3001:A0 *430:30 0.00010219
31 *3001:A1 *430:26 0
32 *3018:A *2895:A1 0.000136572
33 *3034:A *430:30 7.4027e-05
34 *3034:A *430:36 3.26889e-05
35 *3049:A1 *2935:A1 0.000157595
36 *3049:A1 *430:30 7.81954e-05
37 *3122:CLK *430:14 0.000163019
38 *3122:D *2965:A0 3.50033e-05
39 *3122:D *430:14 1.89685e-05
40 *3122:RESET_B *430:10 4.31698e-05
41 *3137:CLK *430:102 0.000194921
42 *3142:D *2895:A1 0.000180675
43 *3166:RESET_B *2895:A1 0.000123893
44 *3166:RESET_B *430:102 7.15997e-05
45 *3204:A *2895:A1 4.99619e-05
46 *153:24 *430:26 0
47 *198:33 *2895:A1 0.000231586
48 *198:33 *430:102 6.80167e-05
49 *199:42 *2896:A1 1.08036e-05
50 *203:71 *430:102 7.03219e-05
51 *203:102 *430:102 0.000595198
52 *207:43 *2895:A1 4.82919e-05
53 *278:115 *430:102 0.000412743
54 *327:10 *2875:A2 0
55 *327:10 *2935:A1 0
56 *327:10 *2965:A0 0.00010004
57 *327:10 *430:14 1.52862e-05
58 *332:33 *2965:A0 1.34361e-05
59 *332:49 *2965:A0 7.81954e-05
60 *336:10 *2965:A0 0
61 *336:10 *430:14 0
62 *341:65 *430:30 0
63 *345:38 *2895:A1 0.000127408
64 *345:70 *430:10 0.00011964
65 *398:23 *2875:A2 8.53113e-06
66 *414:14 *430:30 7.2718e-05
67 *422:12 *2935:A1 9.50342e-06
*RES
1 *3122:Q *430:10 9.93 
2 *430:10 *430:14 4.655 
3 *430:14 *430:16 2.52 
4 *430:16 *430:20 1.845 
5 *430:20 *430:26 12.59 
6 *430:26 *430:30 5.93 
7 *430:30 *430:36 1.515 
8 *430:36 *2935:A1 8.555 
9 *430:36 *2915:A1 1.6 
10 *430:30 *2936:A1 1.6 
11 *430:26 *2916:A1 4.395 
12 *430:20 *2876:A2 1.6 
13 *430:16 *2875:A2 7.745 
14 *430:14 *430:102 20.7 
15 *430:102 *2895:A1 11.04 
16 *430:102 *2896:A1 4.05 
17 *430:10 *2965:A0 7.275 
*END
