*SPEF "ieee 1481-1999"
*DESIGN "pattern_detector"
*DATE "11:11:11 Fri 11 11, 1111"
*VENDOR "OpenRCX"
*PROGRAM "Parallel Extraction"
*VERSION "1.0"
*DESIGN_FLOW "NAME_SCOPE LOCAL" "PIN_CAP NONE"
*DIVIDER /
*DELIMITER :
*BUS_DELIMITER []
*T_UNIT 1 NS
*C_UNIT 1 PF
*R_UNIT 1 OHM
*L_UNIT 1 HENRY

*NAME_MAP
*1 any_match
*2 cfg_en
*3 cfg_idx[0]
*4 cfg_idx[1]
*5 cfg_mask[0]
*6 cfg_mask[1]
*7 cfg_mask[2]
*8 cfg_mask[3]
*9 cfg_mask[4]
*10 cfg_mask[5]
*11 cfg_mask[6]
*12 cfg_mask[7]
*13 cfg_pattern[0]
*14 cfg_pattern[1]
*15 cfg_pattern[2]
*16 cfg_pattern[3]
*17 cfg_pattern[4]
*18 cfg_pattern[5]
*19 cfg_pattern[6]
*20 cfg_pattern[7]
*21 cfg_we
*22 clk
*23 data_in
*24 data_valid
*25 pattern_match[0]
*26 pattern_match[1]
*27 pattern_match[2]
*28 pattern_match[3]
*29 rst_n
*32 _000_
*33 _001_
*34 _002_
*35 _003_
*36 _004_
*37 _005_
*38 _006_
*39 _007_
*40 _008_
*41 _009_
*42 _010_
*43 _011_
*44 _012_
*45 _013_
*46 _014_
*47 _015_
*48 _016_
*49 _017_
*50 _018_
*51 _019_
*52 _020_
*53 _021_
*54 _022_
*55 _023_
*56 _024_
*57 _025_
*58 _026_
*59 _027_
*60 _028_
*61 _029_
*62 _030_
*63 _031_
*64 _032_
*65 _033_
*66 _034_
*67 _035_
*68 _036_
*69 _037_
*70 _038_
*71 _039_
*72 _040_
*73 _041_
*74 _042_
*75 _043_
*76 _044_
*77 _045_
*78 _046_
*79 _047_
*80 _048_
*81 _049_
*82 _050_
*83 _051_
*84 _052_
*85 _053_
*86 _054_
*87 _055_
*88 _056_
*89 _057_
*90 _058_
*91 _059_
*92 _060_
*93 _061_
*94 _062_
*95 _063_
*96 _064_
*97 _065_
*98 _066_
*99 _067_
*100 _068_
*101 _069_
*102 _070_
*103 _071_
*104 _072_
*105 _073_
*106 _074_
*107 _075_
*108 _076_
*109 _077_
*110 _078_
*111 _079_
*112 _080_
*113 _081_
*114 _082_
*115 _083_
*116 _084_
*117 _085_
*118 _086_
*119 _087_
*120 _088_
*121 _089_
*122 _090_
*123 _091_
*124 _092_
*125 _093_
*126 _094_
*127 _095_
*128 _096_
*129 _097_
*130 _098_
*131 _099_
*132 _100_
*133 _101_
*134 _102_
*135 _103_
*136 _104_
*137 _105_
*138 _106_
*139 _107_
*140 _108_
*141 _109_
*142 _110_
*143 _111_
*144 _112_
*145 _113_
*146 _114_
*147 _115_
*148 _116_
*149 _117_
*150 _118_
*151 _119_
*152 _120_
*153 _121_
*154 _122_
*155 _123_
*156 _124_
*157 _125_
*158 _126_
*159 _127_
*160 _128_
*161 _129_
*162 _130_
*163 _131_
*164 _132_
*165 _133_
*166 _134_
*167 _135_
*168 _136_
*169 _137_
*170 _138_
*171 _139_
*172 _140_
*173 _141_
*174 _142_
*175 _143_
*176 _144_
*177 _145_
*178 _146_
*179 _147_
*180 _148_
*181 _149_
*182 _150_
*183 _151_
*184 _152_
*185 _153_
*186 _154_
*187 _155_
*188 _156_
*189 _157_
*190 _158_
*191 _159_
*192 _160_
*193 _161_
*194 _162_
*195 _163_
*196 _164_
*197 _165_
*198 _166_
*199 _167_
*200 _168_
*201 _169_
*202 _170_
*203 _171_
*204 _172_
*205 _173_
*206 _174_
*207 _175_
*208 _176_
*209 _177_
*210 _178_
*211 _179_
*212 _180_
*213 _181_
*214 _182_
*215 _183_
*216 _184_
*217 _185_
*218 _186_
*219 _187_
*220 _188_
*221 _189_
*222 _190_
*223 _191_
*224 _192_
*225 _193_
*226 _194_
*227 _195_
*228 _196_
*229 _197_
*230 _198_
*231 _199_
*232 _200_
*233 _201_
*234 _202_
*235 _203_
*236 _204_
*237 _205_
*238 _206_
*239 _207_
*240 _208_
*241 _209_
*242 _210_
*243 _211_
*244 _212_
*245 _213_
*246 _214_
*247 _215_
*248 _216_
*249 _217_
*250 _218_
*251 _219_
*252 _220_
*253 _221_
*254 _222_
*255 _223_
*256 _224_
*257 _225_
*258 _226_
*259 _227_
*260 _228_
*261 _229_
*262 _230_
*263 _231_
*264 _232_
*265 _233_
*266 _234_
*267 _235_
*268 _236_
*269 _237_
*270 _238_
*271 _239_
*272 _240_
*273 clknet_0_clk
*274 clknet_3_0__leaf_clk
*275 clknet_3_1__leaf_clk
*276 clknet_3_2__leaf_clk
*277 clknet_3_3__leaf_clk
*278 clknet_3_4__leaf_clk
*279 clknet_3_5__leaf_clk
*280 clknet_3_6__leaf_clk
*281 clknet_3_7__leaf_clk
*282 enabled\[0\]
*283 enabled\[1\]
*284 enabled\[2\]
*285 enabled\[3\]
*286 masks\[0\]\[0\]
*287 masks\[0\]\[1\]
*288 masks\[0\]\[2\]
*289 masks\[0\]\[3\]
*290 masks\[0\]\[4\]
*291 masks\[0\]\[5\]
*292 masks\[0\]\[6\]
*293 masks\[0\]\[7\]
*294 masks\[1\]\[0\]
*295 masks\[1\]\[1\]
*296 masks\[1\]\[2\]
*297 masks\[1\]\[3\]
*298 masks\[1\]\[4\]
*299 masks\[1\]\[5\]
*300 masks\[1\]\[6\]
*301 masks\[1\]\[7\]
*302 masks\[2\]\[0\]
*303 masks\[2\]\[1\]
*304 masks\[2\]\[2\]
*305 masks\[2\]\[3\]
*306 masks\[2\]\[4\]
*307 masks\[2\]\[5\]
*308 masks\[2\]\[6\]
*309 masks\[2\]\[7\]
*310 masks\[3\]\[0\]
*311 masks\[3\]\[1\]
*312 masks\[3\]\[2\]
*313 masks\[3\]\[3\]
*314 masks\[3\]\[4\]
*315 masks\[3\]\[5\]
*316 masks\[3\]\[6\]
*317 masks\[3\]\[7\]
*318 net1
*319 net10
*320 net11
*321 net12
*322 net13
*323 net14
*324 net15
*325 net16
*326 net17
*327 net18
*328 net19
*329 net2
*330 net20
*331 net21
*332 net22
*333 net23
*334 net24
*335 net25
*336 net26
*337 net27
*338 net28
*339 net29
*340 net3
*341 net30
*342 net31
*343 net32
*344 net33
*345 net34
*346 net35
*347 net36
*348 net37
*349 net38
*350 net39
*351 net4
*352 net40
*353 net41
*354 net42
*355 net43
*356 net44
*357 net45
*358 net46
*359 net47
*360 net48
*361 net49
*362 net5
*363 net50
*364 net51
*365 net52
*366 net53
*367 net54
*368 net55
*369 net56
*370 net57
*371 net58
*372 net59
*373 net6
*374 net60
*375 net61
*376 net62
*377 net63
*378 net64
*379 net65
*380 net66
*381 net67
*382 net68
*383 net69
*384 net7
*385 net70
*386 net71
*387 net72
*388 net73
*389 net8
*390 net9
*391 patterns\[0\]\[0\]
*392 patterns\[0\]\[1\]
*393 patterns\[0\]\[2\]
*394 patterns\[0\]\[3\]
*395 patterns\[0\]\[4\]
*396 patterns\[0\]\[5\]
*397 patterns\[0\]\[6\]
*398 patterns\[0\]\[7\]
*399 patterns\[1\]\[0\]
*400 patterns\[1\]\[1\]
*401 patterns\[1\]\[2\]
*402 patterns\[1\]\[3\]
*403 patterns\[1\]\[4\]
*404 patterns\[1\]\[5\]
*405 patterns\[1\]\[6\]
*406 patterns\[1\]\[7\]
*407 patterns\[2\]\[0\]
*408 patterns\[2\]\[1\]
*409 patterns\[2\]\[2\]
*410 patterns\[2\]\[3\]
*411 patterns\[2\]\[4\]
*412 patterns\[2\]\[5\]
*413 patterns\[2\]\[6\]
*414 patterns\[2\]\[7\]
*415 patterns\[3\]\[0\]
*416 patterns\[3\]\[1\]
*417 patterns\[3\]\[2\]
*418 patterns\[3\]\[3\]
*419 patterns\[3\]\[4\]
*420 patterns\[3\]\[5\]
*421 patterns\[3\]\[6\]
*422 patterns\[3\]\[7\]
*423 shift_reg\[0\]
*424 shift_reg\[1\]
*425 shift_reg\[2\]
*426 shift_reg\[3\]
*427 shift_reg\[4\]
*428 shift_reg\[5\]
*429 shift_reg\[6\]
*430 shift_reg\[7\]
*431 FILLER_0_0_109
*432 FILLER_0_0_113
*433 FILLER_0_0_125
*434 FILLER_0_0_131
*435 FILLER_0_0_135
*436 FILLER_0_0_139
*437 FILLER_0_0_141
*438 FILLER_0_0_153
*439 FILLER_0_0_165
*440 FILLER_0_0_169
*441 FILLER_0_0_17
*442 FILLER_0_0_181
*443 FILLER_0_0_187
*444 FILLER_0_0_194
*445 FILLER_0_0_197
*446 FILLER_0_0_209
*447 FILLER_0_0_221
*448 FILLER_0_0_225
*449 FILLER_0_0_237
*450 FILLER_0_0_243
*451 FILLER_0_0_248
*452 FILLER_0_0_25
*453 FILLER_0_0_253
*454 FILLER_0_0_265
*455 FILLER_0_0_277
*456 FILLER_0_0_281
*457 FILLER_0_0_29
*458 FILLER_0_0_293
*459 FILLER_0_0_305
*460 FILLER_0_0_313
*461 FILLER_0_0_325
*462 FILLER_0_0_333
*463 FILLER_0_0_337
*464 FILLER_0_0_41
*465 FILLER_0_0_53
*466 FILLER_0_0_57
*467 FILLER_0_0_7
*468 FILLER_0_0_73
*469 FILLER_0_0_81
*470 FILLER_0_0_85
*471 FILLER_0_0_97
*472 FILLER_0_10_109
*473 FILLER_0_10_121
*474 FILLER_0_10_133
*475 FILLER_0_10_139
*476 FILLER_0_10_141
*477 FILLER_0_10_15
*478 FILLER_0_10_153
*479 FILLER_0_10_165
*480 FILLER_0_10_177
*481 FILLER_0_10_189
*482 FILLER_0_10_195
*483 FILLER_0_10_197
*484 FILLER_0_10_209
*485 FILLER_0_10_221
*486 FILLER_0_10_233
*487 FILLER_0_10_245
*488 FILLER_0_10_251
*489 FILLER_0_10_253
*490 FILLER_0_10_265
*491 FILLER_0_10_27
*492 FILLER_0_10_277
*493 FILLER_0_10_289
*494 FILLER_0_10_29
*495 FILLER_0_10_3
*496 FILLER_0_10_301
*497 FILLER_0_10_307
*498 FILLER_0_10_309
*499 FILLER_0_10_321
*500 FILLER_0_10_333
*501 FILLER_0_10_341
*502 FILLER_0_10_41
*503 FILLER_0_10_53
*504 FILLER_0_10_65
*505 FILLER_0_10_77
*506 FILLER_0_10_83
*507 FILLER_0_10_85
*508 FILLER_0_10_97
*509 FILLER_0_11_105
*510 FILLER_0_11_111
*511 FILLER_0_11_113
*512 FILLER_0_11_125
*513 FILLER_0_11_137
*514 FILLER_0_11_149
*515 FILLER_0_11_15
*516 FILLER_0_11_161
*517 FILLER_0_11_167
*518 FILLER_0_11_169
*519 FILLER_0_11_181
*520 FILLER_0_11_193
*521 FILLER_0_11_205
*522 FILLER_0_11_217
*523 FILLER_0_11_223
*524 FILLER_0_11_225
*525 FILLER_0_11_237
*526 FILLER_0_11_249
*527 FILLER_0_11_261
*528 FILLER_0_11_27
*529 FILLER_0_11_273
*530 FILLER_0_11_279
*531 FILLER_0_11_281
*532 FILLER_0_11_293
*533 FILLER_0_11_3
*534 FILLER_0_11_305
*535 FILLER_0_11_317
*536 FILLER_0_11_329
*537 FILLER_0_11_335
*538 FILLER_0_11_337
*539 FILLER_0_11_343
*540 FILLER_0_11_39
*541 FILLER_0_11_51
*542 FILLER_0_11_55
*543 FILLER_0_11_57
*544 FILLER_0_11_69
*545 FILLER_0_11_81
*546 FILLER_0_11_93
*547 FILLER_0_12_118
*548 FILLER_0_12_130
*549 FILLER_0_12_138
*550 FILLER_0_12_141
*551 FILLER_0_12_15
*552 FILLER_0_12_153
*553 FILLER_0_12_165
*554 FILLER_0_12_177
*555 FILLER_0_12_189
*556 FILLER_0_12_195
*557 FILLER_0_12_197
*558 FILLER_0_12_209
*559 FILLER_0_12_221
*560 FILLER_0_12_233
*561 FILLER_0_12_245
*562 FILLER_0_12_251
*563 FILLER_0_12_253
*564 FILLER_0_12_265
*565 FILLER_0_12_27
*566 FILLER_0_12_277
*567 FILLER_0_12_289
*568 FILLER_0_12_29
*569 FILLER_0_12_3
*570 FILLER_0_12_301
*571 FILLER_0_12_307
*572 FILLER_0_12_309
*573 FILLER_0_12_321
*574 FILLER_0_12_333
*575 FILLER_0_12_341
*576 FILLER_0_12_41
*577 FILLER_0_12_53
*578 FILLER_0_12_65
*579 FILLER_0_12_77
*580 FILLER_0_12_83
*581 FILLER_0_12_85
*582 FILLER_0_12_97
*583 FILLER_0_13_126
*584 FILLER_0_13_15
*585 FILLER_0_13_160
*586 FILLER_0_13_169
*587 FILLER_0_13_195
*588 FILLER_0_13_207
*589 FILLER_0_13_219
*590 FILLER_0_13_223
*591 FILLER_0_13_225
*592 FILLER_0_13_237
*593 FILLER_0_13_249
*594 FILLER_0_13_261
*595 FILLER_0_13_27
*596 FILLER_0_13_273
*597 FILLER_0_13_279
*598 FILLER_0_13_281
*599 FILLER_0_13_293
*600 FILLER_0_13_3
*601 FILLER_0_13_305
*602 FILLER_0_13_317
*603 FILLER_0_13_329
*604 FILLER_0_13_335
*605 FILLER_0_13_337
*606 FILLER_0_13_343
*607 FILLER_0_13_39
*608 FILLER_0_13_51
*609 FILLER_0_13_55
*610 FILLER_0_13_57
*611 FILLER_0_13_69
*612 FILLER_0_13_95
*613 FILLER_0_13_99
*614 FILLER_0_14_107
*615 FILLER_0_14_117
*616 FILLER_0_14_126
*617 FILLER_0_14_15
*618 FILLER_0_14_161
*619 FILLER_0_14_205
*620 FILLER_0_14_217
*621 FILLER_0_14_225
*622 FILLER_0_14_237
*623 FILLER_0_14_249
*624 FILLER_0_14_253
*625 FILLER_0_14_265
*626 FILLER_0_14_27
*627 FILLER_0_14_277
*628 FILLER_0_14_289
*629 FILLER_0_14_29
*630 FILLER_0_14_3
*631 FILLER_0_14_301
*632 FILLER_0_14_307
*633 FILLER_0_14_309
*634 FILLER_0_14_321
*635 FILLER_0_14_333
*636 FILLER_0_14_341
*637 FILLER_0_14_41
*638 FILLER_0_14_53
*639 FILLER_0_14_61
*640 FILLER_0_14_85
*641 FILLER_0_15_101
*642 FILLER_0_15_109
*643 FILLER_0_15_113
*644 FILLER_0_15_125
*645 FILLER_0_15_137
*646 FILLER_0_15_143
*647 FILLER_0_15_15
*648 FILLER_0_15_161
*649 FILLER_0_15_167
*650 FILLER_0_15_169
*651 FILLER_0_15_181
*652 FILLER_0_15_211
*653 FILLER_0_15_219
*654 FILLER_0_15_253
*655 FILLER_0_15_259
*656 FILLER_0_15_27
*657 FILLER_0_15_281
*658 FILLER_0_15_293
*659 FILLER_0_15_3
*660 FILLER_0_15_305
*661 FILLER_0_15_317
*662 FILLER_0_15_329
*663 FILLER_0_15_335
*664 FILLER_0_15_337
*665 FILLER_0_15_343
*666 FILLER_0_15_39
*667 FILLER_0_15_51
*668 FILLER_0_15_55
*669 FILLER_0_15_57
*670 FILLER_0_15_69
*671 FILLER_0_15_80
*672 FILLER_0_16_109
*673 FILLER_0_16_121
*674 FILLER_0_16_133
*675 FILLER_0_16_139
*676 FILLER_0_16_141
*677 FILLER_0_16_15
*678 FILLER_0_16_153
*679 FILLER_0_16_179
*680 FILLER_0_16_191
*681 FILLER_0_16_195
*682 FILLER_0_16_197
*683 FILLER_0_16_205
*684 FILLER_0_16_218
*685 FILLER_0_16_250
*686 FILLER_0_16_253
*687 FILLER_0_16_27
*688 FILLER_0_16_280
*689 FILLER_0_16_29
*690 FILLER_0_16_292
*691 FILLER_0_16_3
*692 FILLER_0_16_304
*693 FILLER_0_16_309
*694 FILLER_0_16_321
*695 FILLER_0_16_333
*696 FILLER_0_16_341
*697 FILLER_0_16_41
*698 FILLER_0_16_53
*699 FILLER_0_16_65
*700 FILLER_0_16_77
*701 FILLER_0_16_83
*702 FILLER_0_16_85
*703 FILLER_0_16_97
*704 FILLER_0_17_100
*705 FILLER_0_17_133
*706 FILLER_0_17_145
*707 FILLER_0_17_15
*708 FILLER_0_17_157
*709 FILLER_0_17_169
*710 FILLER_0_17_181
*711 FILLER_0_17_193
*712 FILLER_0_17_221
*713 FILLER_0_17_225
*714 FILLER_0_17_238
*715 FILLER_0_17_247
*716 FILLER_0_17_259
*717 FILLER_0_17_27
*718 FILLER_0_17_278
*719 FILLER_0_17_281
*720 FILLER_0_17_293
*721 FILLER_0_17_3
*722 FILLER_0_17_305
*723 FILLER_0_17_317
*724 FILLER_0_17_329
*725 FILLER_0_17_335
*726 FILLER_0_17_337
*727 FILLER_0_17_343
*728 FILLER_0_17_39
*729 FILLER_0_17_51
*730 FILLER_0_17_55
*731 FILLER_0_17_57
*732 FILLER_0_17_69
*733 FILLER_0_17_76
*734 FILLER_0_17_88
*735 FILLER_0_18_110
*736 FILLER_0_18_138
*737 FILLER_0_18_145
*738 FILLER_0_18_15
*739 FILLER_0_18_157
*740 FILLER_0_18_182
*741 FILLER_0_18_194
*742 FILLER_0_18_197
*743 FILLER_0_18_201
*744 FILLER_0_18_206
*745 FILLER_0_18_214
*746 FILLER_0_18_225
*747 FILLER_0_18_237
*748 FILLER_0_18_249
*749 FILLER_0_18_253
*750 FILLER_0_18_265
*751 FILLER_0_18_27
*752 FILLER_0_18_283
*753 FILLER_0_18_29
*754 FILLER_0_18_295
*755 FILLER_0_18_3
*756 FILLER_0_18_307
*757 FILLER_0_18_309
*758 FILLER_0_18_321
*759 FILLER_0_18_333
*760 FILLER_0_18_339
*761 FILLER_0_18_41
*762 FILLER_0_18_53
*763 FILLER_0_18_59
*764 FILLER_0_18_63
*765 FILLER_0_18_98
*766 FILLER_0_19_106
*767 FILLER_0_19_113
*768 FILLER_0_19_130
*769 FILLER_0_19_139
*770 FILLER_0_19_146
*771 FILLER_0_19_15
*772 FILLER_0_19_158
*773 FILLER_0_19_163
*774 FILLER_0_19_167
*775 FILLER_0_19_169
*776 FILLER_0_19_181
*777 FILLER_0_19_193
*778 FILLER_0_19_217
*779 FILLER_0_19_223
*780 FILLER_0_19_225
*781 FILLER_0_19_237
*782 FILLER_0_19_249
*783 FILLER_0_19_261
*784 FILLER_0_19_27
*785 FILLER_0_19_273
*786 FILLER_0_19_279
*787 FILLER_0_19_281
*788 FILLER_0_19_293
*789 FILLER_0_19_3
*790 FILLER_0_19_305
*791 FILLER_0_19_317
*792 FILLER_0_19_329
*793 FILLER_0_19_335
*794 FILLER_0_19_337
*795 FILLER_0_19_343
*796 FILLER_0_19_39
*797 FILLER_0_19_51
*798 FILLER_0_19_55
*799 FILLER_0_19_77
*800 FILLER_0_19_81
*801 FILLER_0_19_86
*802 FILLER_0_19_93
*803 FILLER_0_19_99
*804 FILLER_0_1_105
*805 FILLER_0_1_111
*806 FILLER_0_1_113
*807 FILLER_0_1_125
*808 FILLER_0_1_137
*809 FILLER_0_1_149
*810 FILLER_0_1_15
*811 FILLER_0_1_161
*812 FILLER_0_1_167
*813 FILLER_0_1_169
*814 FILLER_0_1_181
*815 FILLER_0_1_193
*816 FILLER_0_1_205
*817 FILLER_0_1_217
*818 FILLER_0_1_223
*819 FILLER_0_1_225
*820 FILLER_0_1_237
*821 FILLER_0_1_249
*822 FILLER_0_1_261
*823 FILLER_0_1_27
*824 FILLER_0_1_273
*825 FILLER_0_1_279
*826 FILLER_0_1_281
*827 FILLER_0_1_293
*828 FILLER_0_1_3
*829 FILLER_0_1_305
*830 FILLER_0_1_317
*831 FILLER_0_1_329
*832 FILLER_0_1_335
*833 FILLER_0_1_337
*834 FILLER_0_1_39
*835 FILLER_0_1_51
*836 FILLER_0_1_55
*837 FILLER_0_1_57
*838 FILLER_0_1_69
*839 FILLER_0_1_81
*840 FILLER_0_1_93
*841 FILLER_0_20_102
*842 FILLER_0_20_110
*843 FILLER_0_20_115
*844 FILLER_0_20_125
*845 FILLER_0_20_137
*846 FILLER_0_20_141
*847 FILLER_0_20_15
*848 FILLER_0_20_153
*849 FILLER_0_20_183
*850 FILLER_0_20_191
*851 FILLER_0_20_197
*852 FILLER_0_20_209
*853 FILLER_0_20_230
*854 FILLER_0_20_237
*855 FILLER_0_20_249
*856 FILLER_0_20_253
*857 FILLER_0_20_265
*858 FILLER_0_20_27
*859 FILLER_0_20_29
*860 FILLER_0_20_296
*861 FILLER_0_20_3
*862 FILLER_0_20_309
*863 FILLER_0_20_321
*864 FILLER_0_20_333
*865 FILLER_0_20_341
*866 FILLER_0_20_41
*867 FILLER_0_20_53
*868 FILLER_0_20_74
*869 FILLER_0_20_82
*870 FILLER_0_20_91
*871 FILLER_0_20_95
*872 FILLER_0_21_113
*873 FILLER_0_21_125
*874 FILLER_0_21_137
*875 FILLER_0_21_15
*876 FILLER_0_21_152
*877 FILLER_0_21_164
*878 FILLER_0_21_175
*879 FILLER_0_21_187
*880 FILLER_0_21_195
*881 FILLER_0_21_211
*882 FILLER_0_21_223
*883 FILLER_0_21_225
*884 FILLER_0_21_27
*885 FILLER_0_21_279
*886 FILLER_0_21_3
*887 FILLER_0_21_307
*888 FILLER_0_21_319
*889 FILLER_0_21_331
*890 FILLER_0_21_335
*891 FILLER_0_21_337
*892 FILLER_0_21_343
*893 FILLER_0_21_39
*894 FILLER_0_21_51
*895 FILLER_0_21_55
*896 FILLER_0_21_57
*897 FILLER_0_21_89
*898 FILLER_0_22_109
*899 FILLER_0_22_121
*900 FILLER_0_22_133
*901 FILLER_0_22_139
*902 FILLER_0_22_141
*903 FILLER_0_22_15
*904 FILLER_0_22_153
*905 FILLER_0_22_165
*906 FILLER_0_22_177
*907 FILLER_0_22_189
*908 FILLER_0_22_195
*909 FILLER_0_22_197
*910 FILLER_0_22_209
*911 FILLER_0_22_221
*912 FILLER_0_22_262
*913 FILLER_0_22_27
*914 FILLER_0_22_29
*915 FILLER_0_22_298
*916 FILLER_0_22_3
*917 FILLER_0_22_306
*918 FILLER_0_22_309
*919 FILLER_0_22_321
*920 FILLER_0_22_333
*921 FILLER_0_22_341
*922 FILLER_0_22_41
*923 FILLER_0_22_53
*924 FILLER_0_22_65
*925 FILLER_0_22_77
*926 FILLER_0_22_83
*927 FILLER_0_22_85
*928 FILLER_0_22_97
*929 FILLER_0_23_105
*930 FILLER_0_23_111
*931 FILLER_0_23_133
*932 FILLER_0_23_145
*933 FILLER_0_23_157
*934 FILLER_0_23_169
*935 FILLER_0_23_179
*936 FILLER_0_23_18
*937 FILLER_0_23_191
*938 FILLER_0_23_203
*939 FILLER_0_23_215
*940 FILLER_0_23_223
*941 FILLER_0_23_225
*942 FILLER_0_23_229
*943 FILLER_0_23_248
*944 FILLER_0_23_260
*945 FILLER_0_23_272
*946 FILLER_0_23_281
*947 FILLER_0_23_293
*948 FILLER_0_23_30
*949 FILLER_0_23_305
*950 FILLER_0_23_317
*951 FILLER_0_23_329
*952 FILLER_0_23_335
*953 FILLER_0_23_337
*954 FILLER_0_23_343
*955 FILLER_0_23_42
*956 FILLER_0_23_54
*957 FILLER_0_23_57
*958 FILLER_0_23_6
*959 FILLER_0_23_69
*960 FILLER_0_23_81
*961 FILLER_0_23_93
*962 FILLER_0_24_101
*963 FILLER_0_24_137
*964 FILLER_0_24_148
*965 FILLER_0_24_15
*966 FILLER_0_24_160
*967 FILLER_0_24_182
*968 FILLER_0_24_193
*969 FILLER_0_24_206
*970 FILLER_0_24_218
*971 FILLER_0_24_236
*972 FILLER_0_24_248
*973 FILLER_0_24_253
*974 FILLER_0_24_265
*975 FILLER_0_24_27
*976 FILLER_0_24_277
*977 FILLER_0_24_289
*978 FILLER_0_24_29
*979 FILLER_0_24_3
*980 FILLER_0_24_301
*981 FILLER_0_24_307
*982 FILLER_0_24_309
*983 FILLER_0_24_321
*984 FILLER_0_24_333
*985 FILLER_0_24_341
*986 FILLER_0_24_41
*987 FILLER_0_24_53
*988 FILLER_0_24_61
*989 FILLER_0_24_82
*990 FILLER_0_24_95
*991 FILLER_0_25_111
*992 FILLER_0_25_128
*993 FILLER_0_25_15
*994 FILLER_0_25_151
*995 FILLER_0_25_163
*996 FILLER_0_25_167
*997 FILLER_0_25_169
*998 FILLER_0_25_177
*999 FILLER_0_25_184
*1000 FILLER_0_25_213
*1001 FILLER_0_25_221
*1002 FILLER_0_25_225
*1003 FILLER_0_25_237
*1004 FILLER_0_25_249
*1005 FILLER_0_25_261
*1006 FILLER_0_25_27
*1007 FILLER_0_25_273
*1008 FILLER_0_25_279
*1009 FILLER_0_25_281
*1010 FILLER_0_25_293
*1011 FILLER_0_25_3
*1012 FILLER_0_25_305
*1013 FILLER_0_25_317
*1014 FILLER_0_25_329
*1015 FILLER_0_25_335
*1016 FILLER_0_25_337
*1017 FILLER_0_25_343
*1018 FILLER_0_25_39
*1019 FILLER_0_25_51
*1020 FILLER_0_25_55
*1021 FILLER_0_25_57
*1022 FILLER_0_25_65
*1023 FILLER_0_25_91
*1024 FILLER_0_25_99
*1025 FILLER_0_26_102
*1026 FILLER_0_26_108
*1027 FILLER_0_26_112
*1028 FILLER_0_26_122
*1029 FILLER_0_26_139
*1030 FILLER_0_26_144
*1031 FILLER_0_26_15
*1032 FILLER_0_26_156
*1033 FILLER_0_26_168
*1034 FILLER_0_26_178
*1035 FILLER_0_26_190
*1036 FILLER_0_26_197
*1037 FILLER_0_26_209
*1038 FILLER_0_26_221
*1039 FILLER_0_26_233
*1040 FILLER_0_26_245
*1041 FILLER_0_26_251
*1042 FILLER_0_26_27
*1043 FILLER_0_26_276
*1044 FILLER_0_26_288
*1045 FILLER_0_26_29
*1046 FILLER_0_26_299
*1047 FILLER_0_26_3
*1048 FILLER_0_26_307
*1049 FILLER_0_26_309
*1050 FILLER_0_26_321
*1051 FILLER_0_26_333
*1052 FILLER_0_26_341
*1053 FILLER_0_26_41
*1054 FILLER_0_26_67
*1055 FILLER_0_26_73
*1056 FILLER_0_26_83
*1057 FILLER_0_27_105
*1058 FILLER_0_27_111
*1059 FILLER_0_27_113
*1060 FILLER_0_27_125
*1061 FILLER_0_27_137
*1062 FILLER_0_27_149
*1063 FILLER_0_27_15
*1064 FILLER_0_27_161
*1065 FILLER_0_27_167
*1066 FILLER_0_27_169
*1067 FILLER_0_27_181
*1068 FILLER_0_27_206
*1069 FILLER_0_27_218
*1070 FILLER_0_27_225
*1071 FILLER_0_27_237
*1072 FILLER_0_27_241
*1073 FILLER_0_27_265
*1074 FILLER_0_27_27
*1075 FILLER_0_27_277
*1076 FILLER_0_27_281
*1077 FILLER_0_27_3
*1078 FILLER_0_27_314
*1079 FILLER_0_27_326
*1080 FILLER_0_27_334
*1081 FILLER_0_27_337
*1082 FILLER_0_27_343
*1083 FILLER_0_27_39
*1084 FILLER_0_27_51
*1085 FILLER_0_27_57
*1086 FILLER_0_27_68
*1087 FILLER_0_27_76
*1088 FILLER_0_27_81
*1089 FILLER_0_27_93
*1090 FILLER_0_28_109
*1091 FILLER_0_28_121
*1092 FILLER_0_28_133
*1093 FILLER_0_28_15
*1094 FILLER_0_28_154
*1095 FILLER_0_28_166
*1096 FILLER_0_28_178
*1097 FILLER_0_28_187
*1098 FILLER_0_28_195
*1099 FILLER_0_28_197
*1100 FILLER_0_28_209
*1101 FILLER_0_28_233
*1102 FILLER_0_28_245
*1103 FILLER_0_28_262
*1104 FILLER_0_28_27
*1105 FILLER_0_28_274
*1106 FILLER_0_28_286
*1107 FILLER_0_28_29
*1108 FILLER_0_28_3
*1109 FILLER_0_28_309
*1110 FILLER_0_28_321
*1111 FILLER_0_28_333
*1112 FILLER_0_28_337
*1113 FILLER_0_28_41
*1114 FILLER_0_28_53
*1115 FILLER_0_28_65
*1116 FILLER_0_28_77
*1117 FILLER_0_28_83
*1118 FILLER_0_28_85
*1119 FILLER_0_28_97
*1120 FILLER_0_29_102
*1121 FILLER_0_29_110
*1122 FILLER_0_29_113
*1123 FILLER_0_29_126
*1124 FILLER_0_29_138
*1125 FILLER_0_29_15
*1126 FILLER_0_29_150
*1127 FILLER_0_29_162
*1128 FILLER_0_29_180
*1129 FILLER_0_29_196
*1130 FILLER_0_29_237
*1131 FILLER_0_29_249
*1132 FILLER_0_29_264
*1133 FILLER_0_29_27
*1134 FILLER_0_29_276
*1135 FILLER_0_29_281
*1136 FILLER_0_29_3
*1137 FILLER_0_29_303
*1138 FILLER_0_29_315
*1139 FILLER_0_29_327
*1140 FILLER_0_29_335
*1141 FILLER_0_29_337
*1142 FILLER_0_29_343
*1143 FILLER_0_29_39
*1144 FILLER_0_29_51
*1145 FILLER_0_29_55
*1146 FILLER_0_29_57
*1147 FILLER_0_29_69
*1148 FILLER_0_29_77
*1149 FILLER_0_29_90
*1150 FILLER_0_2_109
*1151 FILLER_0_2_121
*1152 FILLER_0_2_133
*1153 FILLER_0_2_139
*1154 FILLER_0_2_141
*1155 FILLER_0_2_153
*1156 FILLER_0_2_165
*1157 FILLER_0_2_177
*1158 FILLER_0_2_18
*1159 FILLER_0_2_189
*1160 FILLER_0_2_195
*1161 FILLER_0_2_197
*1162 FILLER_0_2_209
*1163 FILLER_0_2_221
*1164 FILLER_0_2_233
*1165 FILLER_0_2_245
*1166 FILLER_0_2_251
*1167 FILLER_0_2_253
*1168 FILLER_0_2_26
*1169 FILLER_0_2_265
*1170 FILLER_0_2_277
*1171 FILLER_0_2_289
*1172 FILLER_0_2_29
*1173 FILLER_0_2_301
*1174 FILLER_0_2_307
*1175 FILLER_0_2_309
*1176 FILLER_0_2_321
*1177 FILLER_0_2_333
*1178 FILLER_0_2_341
*1179 FILLER_0_2_41
*1180 FILLER_0_2_53
*1181 FILLER_0_2_6
*1182 FILLER_0_2_65
*1183 FILLER_0_2_77
*1184 FILLER_0_2_83
*1185 FILLER_0_2_85
*1186 FILLER_0_2_97
*1187 FILLER_0_30_104
*1188 FILLER_0_30_110
*1189 FILLER_0_30_139
*1190 FILLER_0_30_141
*1191 FILLER_0_30_15
*1192 FILLER_0_30_168
*1193 FILLER_0_30_189
*1194 FILLER_0_30_195
*1195 FILLER_0_30_197
*1196 FILLER_0_30_209
*1197 FILLER_0_30_234
*1198 FILLER_0_30_246
*1199 FILLER_0_30_253
*1200 FILLER_0_30_268
*1201 FILLER_0_30_27
*1202 FILLER_0_30_277
*1203 FILLER_0_30_289
*1204 FILLER_0_30_29
*1205 FILLER_0_30_294
*1206 FILLER_0_30_3
*1207 FILLER_0_30_306
*1208 FILLER_0_30_309
*1209 FILLER_0_30_321
*1210 FILLER_0_30_329
*1211 FILLER_0_30_333
*1212 FILLER_0_30_341
*1213 FILLER_0_30_41
*1214 FILLER_0_30_53
*1215 FILLER_0_30_65
*1216 FILLER_0_30_76
*1217 FILLER_0_30_92
*1218 FILLER_0_31_107
*1219 FILLER_0_31_111
*1220 FILLER_0_31_113
*1221 FILLER_0_31_118
*1222 FILLER_0_31_130
*1223 FILLER_0_31_142
*1224 FILLER_0_31_15
*1225 FILLER_0_31_150
*1226 FILLER_0_31_160
*1227 FILLER_0_31_177
*1228 FILLER_0_31_187
*1229 FILLER_0_31_199
*1230 FILLER_0_31_211
*1231 FILLER_0_31_220
*1232 FILLER_0_31_235
*1233 FILLER_0_31_247
*1234 FILLER_0_31_27
*1235 FILLER_0_31_274
*1236 FILLER_0_31_281
*1237 FILLER_0_31_293
*1238 FILLER_0_31_3
*1239 FILLER_0_31_305
*1240 FILLER_0_31_317
*1241 FILLER_0_31_329
*1242 FILLER_0_31_335
*1243 FILLER_0_31_337
*1244 FILLER_0_31_343
*1245 FILLER_0_31_39
*1246 FILLER_0_31_51
*1247 FILLER_0_31_55
*1248 FILLER_0_31_57
*1249 FILLER_0_31_65
*1250 FILLER_0_31_95
*1251 FILLER_0_32_104
*1252 FILLER_0_32_116
*1253 FILLER_0_32_128
*1254 FILLER_0_32_15
*1255 FILLER_0_32_195
*1256 FILLER_0_32_201
*1257 FILLER_0_32_213
*1258 FILLER_0_32_225
*1259 FILLER_0_32_237
*1260 FILLER_0_32_249
*1261 FILLER_0_32_253
*1262 FILLER_0_32_257
*1263 FILLER_0_32_27
*1264 FILLER_0_32_273
*1265 FILLER_0_32_285
*1266 FILLER_0_32_29
*1267 FILLER_0_32_297
*1268 FILLER_0_32_3
*1269 FILLER_0_32_305
*1270 FILLER_0_32_309
*1271 FILLER_0_32_321
*1272 FILLER_0_32_333
*1273 FILLER_0_32_341
*1274 FILLER_0_32_41
*1275 FILLER_0_32_53
*1276 FILLER_0_32_59
*1277 FILLER_0_32_63
*1278 FILLER_0_32_74
*1279 FILLER_0_32_82
*1280 FILLER_0_32_85
*1281 FILLER_0_33_107
*1282 FILLER_0_33_111
*1283 FILLER_0_33_113
*1284 FILLER_0_33_124
*1285 FILLER_0_33_136
*1286 FILLER_0_33_151
*1287 FILLER_0_33_163
*1288 FILLER_0_33_167
*1289 FILLER_0_33_169
*1290 FILLER_0_33_175
*1291 FILLER_0_33_187
*1292 FILLER_0_33_199
*1293 FILLER_0_33_21
*1294 FILLER_0_33_211
*1295 FILLER_0_33_223
*1296 FILLER_0_33_225
*1297 FILLER_0_33_237
*1298 FILLER_0_33_249
*1299 FILLER_0_33_276
*1300 FILLER_0_33_281
*1301 FILLER_0_33_287
*1302 FILLER_0_33_304
*1303 FILLER_0_33_316
*1304 FILLER_0_33_328
*1305 FILLER_0_33_33
*1306 FILLER_0_33_337
*1307 FILLER_0_33_343
*1308 FILLER_0_33_45
*1309 FILLER_0_33_53
*1310 FILLER_0_33_77
*1311 FILLER_0_33_83
*1312 FILLER_0_33_9
*1313 FILLER_0_34_104
*1314 FILLER_0_34_127
*1315 FILLER_0_34_139
*1316 FILLER_0_34_141
*1317 FILLER_0_34_145
*1318 FILLER_0_34_15
*1319 FILLER_0_34_155
*1320 FILLER_0_34_167
*1321 FILLER_0_34_179
*1322 FILLER_0_34_190
*1323 FILLER_0_34_197
*1324 FILLER_0_34_209
*1325 FILLER_0_34_230
*1326 FILLER_0_34_242
*1327 FILLER_0_34_250
*1328 FILLER_0_34_253
*1329 FILLER_0_34_261
*1330 FILLER_0_34_267
*1331 FILLER_0_34_27
*1332 FILLER_0_34_279
*1333 FILLER_0_34_29
*1334 FILLER_0_34_3
*1335 FILLER_0_34_315
*1336 FILLER_0_34_327
*1337 FILLER_0_34_339
*1338 FILLER_0_34_343
*1339 FILLER_0_34_41
*1340 FILLER_0_34_53
*1341 FILLER_0_34_65
*1342 FILLER_0_34_85
*1343 FILLER_0_34_96
*1344 FILLER_0_35_116
*1345 FILLER_0_35_124
*1346 FILLER_0_35_131
*1347 FILLER_0_35_137
*1348 FILLER_0_35_15
*1349 FILLER_0_35_166
*1350 FILLER_0_35_169
*1351 FILLER_0_35_181
*1352 FILLER_0_35_193
*1353 FILLER_0_35_205
*1354 FILLER_0_35_209
*1355 FILLER_0_35_213
*1356 FILLER_0_35_223
*1357 FILLER_0_35_231
*1358 FILLER_0_35_266
*1359 FILLER_0_35_27
*1360 FILLER_0_35_278
*1361 FILLER_0_35_281
*1362 FILLER_0_35_285
*1363 FILLER_0_35_3
*1364 FILLER_0_35_315
*1365 FILLER_0_35_327
*1366 FILLER_0_35_335
*1367 FILLER_0_35_337
*1368 FILLER_0_35_343
*1369 FILLER_0_35_39
*1370 FILLER_0_35_51
*1371 FILLER_0_35_55
*1372 FILLER_0_35_57
*1373 FILLER_0_35_89
*1374 FILLER_0_36_109
*1375 FILLER_0_36_121
*1376 FILLER_0_36_129
*1377 FILLER_0_36_137
*1378 FILLER_0_36_141
*1379 FILLER_0_36_15
*1380 FILLER_0_36_153
*1381 FILLER_0_36_165
*1382 FILLER_0_36_177
*1383 FILLER_0_36_189
*1384 FILLER_0_36_195
*1385 FILLER_0_36_197
*1386 FILLER_0_36_232
*1387 FILLER_0_36_244
*1388 FILLER_0_36_253
*1389 FILLER_0_36_265
*1390 FILLER_0_36_27
*1391 FILLER_0_36_277
*1392 FILLER_0_36_289
*1393 FILLER_0_36_29
*1394 FILLER_0_36_3
*1395 FILLER_0_36_300
*1396 FILLER_0_36_317
*1397 FILLER_0_36_329
*1398 FILLER_0_36_341
*1399 FILLER_0_36_41
*1400 FILLER_0_36_53
*1401 FILLER_0_36_65
*1402 FILLER_0_36_77
*1403 FILLER_0_36_83
*1404 FILLER_0_36_85
*1405 FILLER_0_36_97
*1406 FILLER_0_37_105
*1407 FILLER_0_37_111
*1408 FILLER_0_37_113
*1409 FILLER_0_37_125
*1410 FILLER_0_37_137
*1411 FILLER_0_37_149
*1412 FILLER_0_37_15
*1413 FILLER_0_37_161
*1414 FILLER_0_37_167
*1415 FILLER_0_37_178
*1416 FILLER_0_37_189
*1417 FILLER_0_37_201
*1418 FILLER_0_37_209
*1419 FILLER_0_37_213
*1420 FILLER_0_37_223
*1421 FILLER_0_37_229
*1422 FILLER_0_37_241
*1423 FILLER_0_37_253
*1424 FILLER_0_37_265
*1425 FILLER_0_37_27
*1426 FILLER_0_37_277
*1427 FILLER_0_37_281
*1428 FILLER_0_37_293
*1429 FILLER_0_37_3
*1430 FILLER_0_37_305
*1431 FILLER_0_37_317
*1432 FILLER_0_37_329
*1433 FILLER_0_37_335
*1434 FILLER_0_37_337
*1435 FILLER_0_37_343
*1436 FILLER_0_37_39
*1437 FILLER_0_37_51
*1438 FILLER_0_37_55
*1439 FILLER_0_37_57
*1440 FILLER_0_37_69
*1441 FILLER_0_37_81
*1442 FILLER_0_37_89
*1443 FILLER_0_37_93
*1444 FILLER_0_38_102
*1445 FILLER_0_38_114
*1446 FILLER_0_38_126
*1447 FILLER_0_38_138
*1448 FILLER_0_38_141
*1449 FILLER_0_38_15
*1450 FILLER_0_38_153
*1451 FILLER_0_38_191
*1452 FILLER_0_38_195
*1453 FILLER_0_38_203
*1454 FILLER_0_38_227
*1455 FILLER_0_38_239
*1456 FILLER_0_38_262
*1457 FILLER_0_38_27
*1458 FILLER_0_38_274
*1459 FILLER_0_38_286
*1460 FILLER_0_38_29
*1461 FILLER_0_38_299
*1462 FILLER_0_38_3
*1463 FILLER_0_38_307
*1464 FILLER_0_38_309
*1465 FILLER_0_38_321
*1466 FILLER_0_38_333
*1467 FILLER_0_38_341
*1468 FILLER_0_38_41
*1469 FILLER_0_38_53
*1470 FILLER_0_38_61
*1471 FILLER_0_38_66
*1472 FILLER_0_38_76
*1473 FILLER_0_38_91
*1474 FILLER_0_39_110
*1475 FILLER_0_39_132
*1476 FILLER_0_39_144
*1477 FILLER_0_39_15
*1478 FILLER_0_39_156
*1479 FILLER_0_39_164
*1480 FILLER_0_39_193
*1481 FILLER_0_39_205
*1482 FILLER_0_39_217
*1483 FILLER_0_39_223
*1484 FILLER_0_39_225
*1485 FILLER_0_39_233
*1486 FILLER_0_39_27
*1487 FILLER_0_39_272
*1488 FILLER_0_39_281
*1489 FILLER_0_39_3
*1490 FILLER_0_39_316
*1491 FILLER_0_39_328
*1492 FILLER_0_39_337
*1493 FILLER_0_39_343
*1494 FILLER_0_39_39
*1495 FILLER_0_39_51
*1496 FILLER_0_39_55
*1497 FILLER_0_39_77
*1498 FILLER_0_3_105
*1499 FILLER_0_3_111
*1500 FILLER_0_3_113
*1501 FILLER_0_3_125
*1502 FILLER_0_3_137
*1503 FILLER_0_3_149
*1504 FILLER_0_3_15
*1505 FILLER_0_3_161
*1506 FILLER_0_3_167
*1507 FILLER_0_3_169
*1508 FILLER_0_3_181
*1509 FILLER_0_3_193
*1510 FILLER_0_3_205
*1511 FILLER_0_3_217
*1512 FILLER_0_3_223
*1513 FILLER_0_3_225
*1514 FILLER_0_3_237
*1515 FILLER_0_3_249
*1516 FILLER_0_3_261
*1517 FILLER_0_3_27
*1518 FILLER_0_3_273
*1519 FILLER_0_3_279
*1520 FILLER_0_3_281
*1521 FILLER_0_3_293
*1522 FILLER_0_3_3
*1523 FILLER_0_3_305
*1524 FILLER_0_3_317
*1525 FILLER_0_3_329
*1526 FILLER_0_3_335
*1527 FILLER_0_3_337
*1528 FILLER_0_3_343
*1529 FILLER_0_3_39
*1530 FILLER_0_3_51
*1531 FILLER_0_3_55
*1532 FILLER_0_3_57
*1533 FILLER_0_3_69
*1534 FILLER_0_3_81
*1535 FILLER_0_3_93
*1536 FILLER_0_40_100
*1537 FILLER_0_40_113
*1538 FILLER_0_40_141
*1539 FILLER_0_40_148
*1540 FILLER_0_40_15
*1541 FILLER_0_40_158
*1542 FILLER_0_40_166
*1543 FILLER_0_40_173
*1544 FILLER_0_40_185
*1545 FILLER_0_40_193
*1546 FILLER_0_40_197
*1547 FILLER_0_40_209
*1548 FILLER_0_40_221
*1549 FILLER_0_40_233
*1550 FILLER_0_40_241
*1551 FILLER_0_40_262
*1552 FILLER_0_40_27
*1553 FILLER_0_40_274
*1554 FILLER_0_40_280
*1555 FILLER_0_40_29
*1556 FILLER_0_40_3
*1557 FILLER_0_40_300
*1558 FILLER_0_40_309
*1559 FILLER_0_40_321
*1560 FILLER_0_40_333
*1561 FILLER_0_40_41
*1562 FILLER_0_40_53
*1563 FILLER_0_40_61
*1564 FILLER_0_41_109
*1565 FILLER_0_41_113
*1566 FILLER_0_41_117
*1567 FILLER_0_41_121
*1568 FILLER_0_41_129
*1569 FILLER_0_41_135
*1570 FILLER_0_41_139
*1571 FILLER_0_41_15
*1572 FILLER_0_41_160
*1573 FILLER_0_41_173
*1574 FILLER_0_41_185
*1575 FILLER_0_41_197
*1576 FILLER_0_41_209
*1577 FILLER_0_41_221
*1578 FILLER_0_41_225
*1579 FILLER_0_41_237
*1580 FILLER_0_41_261
*1581 FILLER_0_41_27
*1582 FILLER_0_41_273
*1583 FILLER_0_41_279
*1584 FILLER_0_41_281
*1585 FILLER_0_41_3
*1586 FILLER_0_41_303
*1587 FILLER_0_41_315
*1588 FILLER_0_41_327
*1589 FILLER_0_41_335
*1590 FILLER_0_41_337
*1591 FILLER_0_41_343
*1592 FILLER_0_41_39
*1593 FILLER_0_41_51
*1594 FILLER_0_41_55
*1595 FILLER_0_41_57
*1596 FILLER_0_41_69
*1597 FILLER_0_41_73
*1598 FILLER_0_41_85
*1599 FILLER_0_41_97
*1600 FILLER_0_42_109
*1601 FILLER_0_42_121
*1602 FILLER_0_42_133
*1603 FILLER_0_42_139
*1604 FILLER_0_42_141
*1605 FILLER_0_42_15
*1606 FILLER_0_42_153
*1607 FILLER_0_42_165
*1608 FILLER_0_42_177
*1609 FILLER_0_42_189
*1610 FILLER_0_42_195
*1611 FILLER_0_42_197
*1612 FILLER_0_42_209
*1613 FILLER_0_42_216
*1614 FILLER_0_42_228
*1615 FILLER_0_42_240
*1616 FILLER_0_42_253
*1617 FILLER_0_42_265
*1618 FILLER_0_42_27
*1619 FILLER_0_42_277
*1620 FILLER_0_42_285
*1621 FILLER_0_42_29
*1622 FILLER_0_42_290
*1623 FILLER_0_42_3
*1624 FILLER_0_42_302
*1625 FILLER_0_42_309
*1626 FILLER_0_42_321
*1627 FILLER_0_42_333
*1628 FILLER_0_42_341
*1629 FILLER_0_42_41
*1630 FILLER_0_42_53
*1631 FILLER_0_42_65
*1632 FILLER_0_42_77
*1633 FILLER_0_42_83
*1634 FILLER_0_42_85
*1635 FILLER_0_42_97
*1636 FILLER_0_43_105
*1637 FILLER_0_43_111
*1638 FILLER_0_43_113
*1639 FILLER_0_43_120
*1640 FILLER_0_43_126
*1641 FILLER_0_43_136
*1642 FILLER_0_43_148
*1643 FILLER_0_43_160
*1644 FILLER_0_43_169
*1645 FILLER_0_43_181
*1646 FILLER_0_43_193
*1647 FILLER_0_43_201
*1648 FILLER_0_43_21
*1649 FILLER_0_43_234
*1650 FILLER_0_43_246
*1651 FILLER_0_43_258
*1652 FILLER_0_43_270
*1653 FILLER_0_43_278
*1654 FILLER_0_43_290
*1655 FILLER_0_43_302
*1656 FILLER_0_43_314
*1657 FILLER_0_43_326
*1658 FILLER_0_43_33
*1659 FILLER_0_43_334
*1660 FILLER_0_43_337
*1661 FILLER_0_43_343
*1662 FILLER_0_43_45
*1663 FILLER_0_43_53
*1664 FILLER_0_43_57
*1665 FILLER_0_43_69
*1666 FILLER_0_43_81
*1667 FILLER_0_43_9
*1668 FILLER_0_43_93
*1669 FILLER_0_44_105
*1670 FILLER_0_44_119
*1671 FILLER_0_44_149
*1672 FILLER_0_44_15
*1673 FILLER_0_44_161
*1674 FILLER_0_44_167
*1675 FILLER_0_44_171
*1676 FILLER_0_44_192
*1677 FILLER_0_44_197
*1678 FILLER_0_44_207
*1679 FILLER_0_44_211
*1680 FILLER_0_44_240
*1681 FILLER_0_44_246
*1682 FILLER_0_44_251
*1683 FILLER_0_44_27
*1684 FILLER_0_44_270
*1685 FILLER_0_44_29
*1686 FILLER_0_44_299
*1687 FILLER_0_44_3
*1688 FILLER_0_44_307
*1689 FILLER_0_44_309
*1690 FILLER_0_44_321
*1691 FILLER_0_44_333
*1692 FILLER_0_44_341
*1693 FILLER_0_44_41
*1694 FILLER_0_44_53
*1695 FILLER_0_44_65
*1696 FILLER_0_44_77
*1697 FILLER_0_44_83
*1698 FILLER_0_45_106
*1699 FILLER_0_45_122
*1700 FILLER_0_45_142
*1701 FILLER_0_45_15
*1702 FILLER_0_45_154
*1703 FILLER_0_45_158
*1704 FILLER_0_45_169
*1705 FILLER_0_45_222
*1706 FILLER_0_45_234
*1707 FILLER_0_45_27
*1708 FILLER_0_45_278
*1709 FILLER_0_45_281
*1710 FILLER_0_45_293
*1711 FILLER_0_45_3
*1712 FILLER_0_45_305
*1713 FILLER_0_45_317
*1714 FILLER_0_45_329
*1715 FILLER_0_45_335
*1716 FILLER_0_45_337
*1717 FILLER_0_45_343
*1718 FILLER_0_45_39
*1719 FILLER_0_45_51
*1720 FILLER_0_45_55
*1721 FILLER_0_45_57
*1722 FILLER_0_45_69
*1723 FILLER_0_45_81
*1724 FILLER_0_46_113
*1725 FILLER_0_46_117
*1726 FILLER_0_46_138
*1727 FILLER_0_46_141
*1728 FILLER_0_46_15
*1729 FILLER_0_46_183
*1730 FILLER_0_46_195
*1731 FILLER_0_46_206
*1732 FILLER_0_46_210
*1733 FILLER_0_46_214
*1734 FILLER_0_46_226
*1735 FILLER_0_46_230
*1736 FILLER_0_46_239
*1737 FILLER_0_46_251
*1738 FILLER_0_46_27
*1739 FILLER_0_46_270
*1740 FILLER_0_46_282
*1741 FILLER_0_46_29
*1742 FILLER_0_46_294
*1743 FILLER_0_46_3
*1744 FILLER_0_46_306
*1745 FILLER_0_46_309
*1746 FILLER_0_46_321
*1747 FILLER_0_46_333
*1748 FILLER_0_46_341
*1749 FILLER_0_46_41
*1750 FILLER_0_46_53
*1751 FILLER_0_46_65
*1752 FILLER_0_46_77
*1753 FILLER_0_46_83
*1754 FILLER_0_46_85
*1755 FILLER_0_46_91
*1756 FILLER_0_46_95
*1757 FILLER_0_47_105
*1758 FILLER_0_47_111
*1759 FILLER_0_47_113
*1760 FILLER_0_47_121
*1761 FILLER_0_47_126
*1762 FILLER_0_47_138
*1763 FILLER_0_47_15
*1764 FILLER_0_47_150
*1765 FILLER_0_47_158
*1766 FILLER_0_47_164
*1767 FILLER_0_47_177
*1768 FILLER_0_47_189
*1769 FILLER_0_47_195
*1770 FILLER_0_47_204
*1771 FILLER_0_47_216
*1772 FILLER_0_47_225
*1773 FILLER_0_47_237
*1774 FILLER_0_47_249
*1775 FILLER_0_47_261
*1776 FILLER_0_47_27
*1777 FILLER_0_47_273
*1778 FILLER_0_47_279
*1779 FILLER_0_47_281
*1780 FILLER_0_47_293
*1781 FILLER_0_47_3
*1782 FILLER_0_47_305
*1783 FILLER_0_47_317
*1784 FILLER_0_47_329
*1785 FILLER_0_47_335
*1786 FILLER_0_47_337
*1787 FILLER_0_47_343
*1788 FILLER_0_47_39
*1789 FILLER_0_47_51
*1790 FILLER_0_47_55
*1791 FILLER_0_47_57
*1792 FILLER_0_47_69
*1793 FILLER_0_47_81
*1794 FILLER_0_47_93
*1795 FILLER_0_48_109
*1796 FILLER_0_48_121
*1797 FILLER_0_48_133
*1798 FILLER_0_48_139
*1799 FILLER_0_48_141
*1800 FILLER_0_48_15
*1801 FILLER_0_48_153
*1802 FILLER_0_48_165
*1803 FILLER_0_48_177
*1804 FILLER_0_48_189
*1805 FILLER_0_48_195
*1806 FILLER_0_48_197
*1807 FILLER_0_48_209
*1808 FILLER_0_48_221
*1809 FILLER_0_48_233
*1810 FILLER_0_48_245
*1811 FILLER_0_48_251
*1812 FILLER_0_48_253
*1813 FILLER_0_48_265
*1814 FILLER_0_48_27
*1815 FILLER_0_48_277
*1816 FILLER_0_48_289
*1817 FILLER_0_48_29
*1818 FILLER_0_48_3
*1819 FILLER_0_48_301
*1820 FILLER_0_48_307
*1821 FILLER_0_48_309
*1822 FILLER_0_48_321
*1823 FILLER_0_48_333
*1824 FILLER_0_48_341
*1825 FILLER_0_48_41
*1826 FILLER_0_48_53
*1827 FILLER_0_48_65
*1828 FILLER_0_48_77
*1829 FILLER_0_48_83
*1830 FILLER_0_48_85
*1831 FILLER_0_48_97
*1832 FILLER_0_49_105
*1833 FILLER_0_49_111
*1834 FILLER_0_49_113
*1835 FILLER_0_49_125
*1836 FILLER_0_49_137
*1837 FILLER_0_49_149
*1838 FILLER_0_49_15
*1839 FILLER_0_49_161
*1840 FILLER_0_49_167
*1841 FILLER_0_49_169
*1842 FILLER_0_49_181
*1843 FILLER_0_49_193
*1844 FILLER_0_49_205
*1845 FILLER_0_49_217
*1846 FILLER_0_49_223
*1847 FILLER_0_49_225
*1848 FILLER_0_49_237
*1849 FILLER_0_49_249
*1850 FILLER_0_49_261
*1851 FILLER_0_49_27
*1852 FILLER_0_49_273
*1853 FILLER_0_49_279
*1854 FILLER_0_49_281
*1855 FILLER_0_49_293
*1856 FILLER_0_49_3
*1857 FILLER_0_49_305
*1858 FILLER_0_49_317
*1859 FILLER_0_49_329
*1860 FILLER_0_49_335
*1861 FILLER_0_49_337
*1862 FILLER_0_49_343
*1863 FILLER_0_49_39
*1864 FILLER_0_49_51
*1865 FILLER_0_49_55
*1866 FILLER_0_49_57
*1867 FILLER_0_49_69
*1868 FILLER_0_49_81
*1869 FILLER_0_49_93
*1870 FILLER_0_4_109
*1871 FILLER_0_4_121
*1872 FILLER_0_4_133
*1873 FILLER_0_4_139
*1874 FILLER_0_4_141
*1875 FILLER_0_4_15
*1876 FILLER_0_4_153
*1877 FILLER_0_4_165
*1878 FILLER_0_4_177
*1879 FILLER_0_4_189
*1880 FILLER_0_4_195
*1881 FILLER_0_4_197
*1882 FILLER_0_4_209
*1883 FILLER_0_4_221
*1884 FILLER_0_4_233
*1885 FILLER_0_4_245
*1886 FILLER_0_4_251
*1887 FILLER_0_4_253
*1888 FILLER_0_4_265
*1889 FILLER_0_4_27
*1890 FILLER_0_4_277
*1891 FILLER_0_4_289
*1892 FILLER_0_4_29
*1893 FILLER_0_4_3
*1894 FILLER_0_4_301
*1895 FILLER_0_4_307
*1896 FILLER_0_4_309
*1897 FILLER_0_4_321
*1898 FILLER_0_4_333
*1899 FILLER_0_4_341
*1900 FILLER_0_4_41
*1901 FILLER_0_4_53
*1902 FILLER_0_4_65
*1903 FILLER_0_4_77
*1904 FILLER_0_4_83
*1905 FILLER_0_4_85
*1906 FILLER_0_4_97
*1907 FILLER_0_50_109
*1908 FILLER_0_50_121
*1909 FILLER_0_50_133
*1910 FILLER_0_50_139
*1911 FILLER_0_50_141
*1912 FILLER_0_50_15
*1913 FILLER_0_50_153
*1914 FILLER_0_50_165
*1915 FILLER_0_50_177
*1916 FILLER_0_50_189
*1917 FILLER_0_50_195
*1918 FILLER_0_50_197
*1919 FILLER_0_50_209
*1920 FILLER_0_50_221
*1921 FILLER_0_50_233
*1922 FILLER_0_50_245
*1923 FILLER_0_50_251
*1924 FILLER_0_50_253
*1925 FILLER_0_50_265
*1926 FILLER_0_50_27
*1927 FILLER_0_50_277
*1928 FILLER_0_50_289
*1929 FILLER_0_50_29
*1930 FILLER_0_50_3
*1931 FILLER_0_50_301
*1932 FILLER_0_50_307
*1933 FILLER_0_50_309
*1934 FILLER_0_50_321
*1935 FILLER_0_50_333
*1936 FILLER_0_50_41
*1937 FILLER_0_50_53
*1938 FILLER_0_50_65
*1939 FILLER_0_50_77
*1940 FILLER_0_50_83
*1941 FILLER_0_50_85
*1942 FILLER_0_50_97
*1943 FILLER_0_51_105
*1944 FILLER_0_51_111
*1945 FILLER_0_51_113
*1946 FILLER_0_51_125
*1947 FILLER_0_51_137
*1948 FILLER_0_51_149
*1949 FILLER_0_51_15
*1950 FILLER_0_51_161
*1951 FILLER_0_51_167
*1952 FILLER_0_51_169
*1953 FILLER_0_51_181
*1954 FILLER_0_51_193
*1955 FILLER_0_51_205
*1956 FILLER_0_51_217
*1957 FILLER_0_51_223
*1958 FILLER_0_51_225
*1959 FILLER_0_51_237
*1960 FILLER_0_51_249
*1961 FILLER_0_51_261
*1962 FILLER_0_51_27
*1963 FILLER_0_51_273
*1964 FILLER_0_51_279
*1965 FILLER_0_51_281
*1966 FILLER_0_51_293
*1967 FILLER_0_51_3
*1968 FILLER_0_51_305
*1969 FILLER_0_51_317
*1970 FILLER_0_51_329
*1971 FILLER_0_51_335
*1972 FILLER_0_51_337
*1973 FILLER_0_51_343
*1974 FILLER_0_51_39
*1975 FILLER_0_51_51
*1976 FILLER_0_51_55
*1977 FILLER_0_51_57
*1978 FILLER_0_51_69
*1979 FILLER_0_51_81
*1980 FILLER_0_51_93
*1981 FILLER_0_52_109
*1982 FILLER_0_52_121
*1983 FILLER_0_52_133
*1984 FILLER_0_52_139
*1985 FILLER_0_52_141
*1986 FILLER_0_52_15
*1987 FILLER_0_52_153
*1988 FILLER_0_52_165
*1989 FILLER_0_52_177
*1990 FILLER_0_52_189
*1991 FILLER_0_52_195
*1992 FILLER_0_52_197
*1993 FILLER_0_52_209
*1994 FILLER_0_52_221
*1995 FILLER_0_52_233
*1996 FILLER_0_52_245
*1997 FILLER_0_52_251
*1998 FILLER_0_52_253
*1999 FILLER_0_52_265
*2000 FILLER_0_52_27
*2001 FILLER_0_52_277
*2002 FILLER_0_52_289
*2003 FILLER_0_52_29
*2004 FILLER_0_52_3
*2005 FILLER_0_52_301
*2006 FILLER_0_52_307
*2007 FILLER_0_52_309
*2008 FILLER_0_52_321
*2009 FILLER_0_52_333
*2010 FILLER_0_52_341
*2011 FILLER_0_52_41
*2012 FILLER_0_52_53
*2013 FILLER_0_52_65
*2014 FILLER_0_52_77
*2015 FILLER_0_52_83
*2016 FILLER_0_52_85
*2017 FILLER_0_52_97
*2018 FILLER_0_53_105
*2019 FILLER_0_53_111
*2020 FILLER_0_53_113
*2021 FILLER_0_53_125
*2022 FILLER_0_53_137
*2023 FILLER_0_53_149
*2024 FILLER_0_53_15
*2025 FILLER_0_53_161
*2026 FILLER_0_53_167
*2027 FILLER_0_53_169
*2028 FILLER_0_53_181
*2029 FILLER_0_53_193
*2030 FILLER_0_53_205
*2031 FILLER_0_53_217
*2032 FILLER_0_53_223
*2033 FILLER_0_53_225
*2034 FILLER_0_53_237
*2035 FILLER_0_53_249
*2036 FILLER_0_53_261
*2037 FILLER_0_53_27
*2038 FILLER_0_53_273
*2039 FILLER_0_53_279
*2040 FILLER_0_53_281
*2041 FILLER_0_53_293
*2042 FILLER_0_53_3
*2043 FILLER_0_53_305
*2044 FILLER_0_53_317
*2045 FILLER_0_53_329
*2046 FILLER_0_53_335
*2047 FILLER_0_53_337
*2048 FILLER_0_53_343
*2049 FILLER_0_53_39
*2050 FILLER_0_53_51
*2051 FILLER_0_53_55
*2052 FILLER_0_53_57
*2053 FILLER_0_53_69
*2054 FILLER_0_53_81
*2055 FILLER_0_53_93
*2056 FILLER_0_54_109
*2057 FILLER_0_54_121
*2058 FILLER_0_54_133
*2059 FILLER_0_54_139
*2060 FILLER_0_54_141
*2061 FILLER_0_54_15
*2062 FILLER_0_54_153
*2063 FILLER_0_54_165
*2064 FILLER_0_54_177
*2065 FILLER_0_54_189
*2066 FILLER_0_54_195
*2067 FILLER_0_54_197
*2068 FILLER_0_54_209
*2069 FILLER_0_54_221
*2070 FILLER_0_54_233
*2071 FILLER_0_54_245
*2072 FILLER_0_54_251
*2073 FILLER_0_54_253
*2074 FILLER_0_54_265
*2075 FILLER_0_54_27
*2076 FILLER_0_54_277
*2077 FILLER_0_54_289
*2078 FILLER_0_54_29
*2079 FILLER_0_54_3
*2080 FILLER_0_54_301
*2081 FILLER_0_54_307
*2082 FILLER_0_54_309
*2083 FILLER_0_54_321
*2084 FILLER_0_54_333
*2085 FILLER_0_54_341
*2086 FILLER_0_54_41
*2087 FILLER_0_54_53
*2088 FILLER_0_54_65
*2089 FILLER_0_54_77
*2090 FILLER_0_54_83
*2091 FILLER_0_54_85
*2092 FILLER_0_54_97
*2093 FILLER_0_55_105
*2094 FILLER_0_55_111
*2095 FILLER_0_55_113
*2096 FILLER_0_55_125
*2097 FILLER_0_55_137
*2098 FILLER_0_55_149
*2099 FILLER_0_55_161
*2100 FILLER_0_55_167
*2101 FILLER_0_55_169
*2102 FILLER_0_55_181
*2103 FILLER_0_55_19
*2104 FILLER_0_55_193
*2105 FILLER_0_55_205
*2106 FILLER_0_55_217
*2107 FILLER_0_55_223
*2108 FILLER_0_55_225
*2109 FILLER_0_55_237
*2110 FILLER_0_55_249
*2111 FILLER_0_55_261
*2112 FILLER_0_55_273
*2113 FILLER_0_55_279
*2114 FILLER_0_55_281
*2115 FILLER_0_55_293
*2116 FILLER_0_55_305
*2117 FILLER_0_55_31
*2118 FILLER_0_55_317
*2119 FILLER_0_55_329
*2120 FILLER_0_55_335
*2121 FILLER_0_55_337
*2122 FILLER_0_55_343
*2123 FILLER_0_55_43
*2124 FILLER_0_55_55
*2125 FILLER_0_55_57
*2126 FILLER_0_55_69
*2127 FILLER_0_55_7
*2128 FILLER_0_55_81
*2129 FILLER_0_55_93
*2130 FILLER_0_56_109
*2131 FILLER_0_56_121
*2132 FILLER_0_56_133
*2133 FILLER_0_56_139
*2134 FILLER_0_56_141
*2135 FILLER_0_56_15
*2136 FILLER_0_56_153
*2137 FILLER_0_56_165
*2138 FILLER_0_56_177
*2139 FILLER_0_56_189
*2140 FILLER_0_56_195
*2141 FILLER_0_56_197
*2142 FILLER_0_56_209
*2143 FILLER_0_56_221
*2144 FILLER_0_56_233
*2145 FILLER_0_56_245
*2146 FILLER_0_56_251
*2147 FILLER_0_56_253
*2148 FILLER_0_56_265
*2149 FILLER_0_56_27
*2150 FILLER_0_56_277
*2151 FILLER_0_56_289
*2152 FILLER_0_56_29
*2153 FILLER_0_56_3
*2154 FILLER_0_56_301
*2155 FILLER_0_56_307
*2156 FILLER_0_56_309
*2157 FILLER_0_56_321
*2158 FILLER_0_56_333
*2159 FILLER_0_56_339
*2160 FILLER_0_56_41
*2161 FILLER_0_56_53
*2162 FILLER_0_56_65
*2163 FILLER_0_56_77
*2164 FILLER_0_56_83
*2165 FILLER_0_56_85
*2166 FILLER_0_56_97
*2167 FILLER_0_57_109
*2168 FILLER_0_57_113
*2169 FILLER_0_57_13
*2170 FILLER_0_57_135
*2171 FILLER_0_57_139
*2172 FILLER_0_57_141
*2173 FILLER_0_57_153
*2174 FILLER_0_57_165
*2175 FILLER_0_57_169
*2176 FILLER_0_57_187
*2177 FILLER_0_57_195
*2178 FILLER_0_57_197
*2179 FILLER_0_57_209
*2180 FILLER_0_57_221
*2181 FILLER_0_57_225
*2182 FILLER_0_57_237
*2183 FILLER_0_57_243
*2184 FILLER_0_57_248
*2185 FILLER_0_57_25
*2186 FILLER_0_57_253
*2187 FILLER_0_57_265
*2188 FILLER_0_57_277
*2189 FILLER_0_57_281
*2190 FILLER_0_57_29
*2191 FILLER_0_57_293
*2192 FILLER_0_57_299
*2193 FILLER_0_57_304
*2194 FILLER_0_57_309
*2195 FILLER_0_57_321
*2196 FILLER_0_57_329
*2197 FILLER_0_57_337
*2198 FILLER_0_57_343
*2199 FILLER_0_57_41
*2200 FILLER_0_57_53
*2201 FILLER_0_57_57
*2202 FILLER_0_57_73
*2203 FILLER_0_57_81
*2204 FILLER_0_57_85
*2205 FILLER_0_57_97
*2206 FILLER_0_5_105
*2207 FILLER_0_5_111
*2208 FILLER_0_5_113
*2209 FILLER_0_5_125
*2210 FILLER_0_5_137
*2211 FILLER_0_5_149
*2212 FILLER_0_5_15
*2213 FILLER_0_5_161
*2214 FILLER_0_5_167
*2215 FILLER_0_5_169
*2216 FILLER_0_5_181
*2217 FILLER_0_5_193
*2218 FILLER_0_5_205
*2219 FILLER_0_5_217
*2220 FILLER_0_5_223
*2221 FILLER_0_5_225
*2222 FILLER_0_5_237
*2223 FILLER_0_5_249
*2224 FILLER_0_5_261
*2225 FILLER_0_5_27
*2226 FILLER_0_5_273
*2227 FILLER_0_5_279
*2228 FILLER_0_5_281
*2229 FILLER_0_5_293
*2230 FILLER_0_5_3
*2231 FILLER_0_5_305
*2232 FILLER_0_5_317
*2233 FILLER_0_5_329
*2234 FILLER_0_5_335
*2235 FILLER_0_5_337
*2236 FILLER_0_5_343
*2237 FILLER_0_5_39
*2238 FILLER_0_5_51
*2239 FILLER_0_5_55
*2240 FILLER_0_5_57
*2241 FILLER_0_5_69
*2242 FILLER_0_5_81
*2243 FILLER_0_5_93
*2244 FILLER_0_6_109
*2245 FILLER_0_6_121
*2246 FILLER_0_6_133
*2247 FILLER_0_6_139
*2248 FILLER_0_6_141
*2249 FILLER_0_6_15
*2250 FILLER_0_6_153
*2251 FILLER_0_6_165
*2252 FILLER_0_6_177
*2253 FILLER_0_6_189
*2254 FILLER_0_6_195
*2255 FILLER_0_6_197
*2256 FILLER_0_6_209
*2257 FILLER_0_6_221
*2258 FILLER_0_6_233
*2259 FILLER_0_6_245
*2260 FILLER_0_6_251
*2261 FILLER_0_6_253
*2262 FILLER_0_6_265
*2263 FILLER_0_6_27
*2264 FILLER_0_6_277
*2265 FILLER_0_6_289
*2266 FILLER_0_6_29
*2267 FILLER_0_6_3
*2268 FILLER_0_6_301
*2269 FILLER_0_6_307
*2270 FILLER_0_6_309
*2271 FILLER_0_6_321
*2272 FILLER_0_6_333
*2273 FILLER_0_6_341
*2274 FILLER_0_6_41
*2275 FILLER_0_6_53
*2276 FILLER_0_6_65
*2277 FILLER_0_6_77
*2278 FILLER_0_6_83
*2279 FILLER_0_6_85
*2280 FILLER_0_6_97
*2281 FILLER_0_7_105
*2282 FILLER_0_7_111
*2283 FILLER_0_7_113
*2284 FILLER_0_7_125
*2285 FILLER_0_7_137
*2286 FILLER_0_7_149
*2287 FILLER_0_7_15
*2288 FILLER_0_7_161
*2289 FILLER_0_7_167
*2290 FILLER_0_7_169
*2291 FILLER_0_7_181
*2292 FILLER_0_7_193
*2293 FILLER_0_7_205
*2294 FILLER_0_7_217
*2295 FILLER_0_7_223
*2296 FILLER_0_7_225
*2297 FILLER_0_7_237
*2298 FILLER_0_7_249
*2299 FILLER_0_7_261
*2300 FILLER_0_7_27
*2301 FILLER_0_7_273
*2302 FILLER_0_7_279
*2303 FILLER_0_7_281
*2304 FILLER_0_7_293
*2305 FILLER_0_7_3
*2306 FILLER_0_7_305
*2307 FILLER_0_7_317
*2308 FILLER_0_7_329
*2309 FILLER_0_7_335
*2310 FILLER_0_7_337
*2311 FILLER_0_7_343
*2312 FILLER_0_7_39
*2313 FILLER_0_7_51
*2314 FILLER_0_7_55
*2315 FILLER_0_7_57
*2316 FILLER_0_7_69
*2317 FILLER_0_7_81
*2318 FILLER_0_7_93
*2319 FILLER_0_8_109
*2320 FILLER_0_8_121
*2321 FILLER_0_8_133
*2322 FILLER_0_8_139
*2323 FILLER_0_8_141
*2324 FILLER_0_8_15
*2325 FILLER_0_8_153
*2326 FILLER_0_8_165
*2327 FILLER_0_8_177
*2328 FILLER_0_8_189
*2329 FILLER_0_8_195
*2330 FILLER_0_8_197
*2331 FILLER_0_8_209
*2332 FILLER_0_8_221
*2333 FILLER_0_8_233
*2334 FILLER_0_8_245
*2335 FILLER_0_8_251
*2336 FILLER_0_8_253
*2337 FILLER_0_8_265
*2338 FILLER_0_8_27
*2339 FILLER_0_8_277
*2340 FILLER_0_8_289
*2341 FILLER_0_8_29
*2342 FILLER_0_8_3
*2343 FILLER_0_8_301
*2344 FILLER_0_8_307
*2345 FILLER_0_8_309
*2346 FILLER_0_8_321
*2347 FILLER_0_8_333
*2348 FILLER_0_8_41
*2349 FILLER_0_8_53
*2350 FILLER_0_8_65
*2351 FILLER_0_8_77
*2352 FILLER_0_8_83
*2353 FILLER_0_8_85
*2354 FILLER_0_8_97
*2355 FILLER_0_9_105
*2356 FILLER_0_9_111
*2357 FILLER_0_9_113
*2358 FILLER_0_9_125
*2359 FILLER_0_9_137
*2360 FILLER_0_9_149
*2361 FILLER_0_9_15
*2362 FILLER_0_9_161
*2363 FILLER_0_9_167
*2364 FILLER_0_9_169
*2365 FILLER_0_9_181
*2366 FILLER_0_9_193
*2367 FILLER_0_9_205
*2368 FILLER_0_9_217
*2369 FILLER_0_9_223
*2370 FILLER_0_9_225
*2371 FILLER_0_9_237
*2372 FILLER_0_9_249
*2373 FILLER_0_9_261
*2374 FILLER_0_9_27
*2375 FILLER_0_9_273
*2376 FILLER_0_9_279
*2377 FILLER_0_9_281
*2378 FILLER_0_9_293
*2379 FILLER_0_9_3
*2380 FILLER_0_9_305
*2381 FILLER_0_9_317
*2382 FILLER_0_9_329
*2383 FILLER_0_9_335
*2384 FILLER_0_9_337
*2385 FILLER_0_9_343
*2386 FILLER_0_9_39
*2387 FILLER_0_9_51
*2388 FILLER_0_9_55
*2389 FILLER_0_9_57
*2390 FILLER_0_9_69
*2391 FILLER_0_9_81
*2392 FILLER_0_9_93
*2393 PHY_0
*2394 PHY_1
*2395 PHY_10
*2396 PHY_100
*2397 PHY_101
*2398 PHY_102
*2399 PHY_103
*2400 PHY_104
*2401 PHY_105
*2402 PHY_106
*2403 PHY_107
*2404 PHY_108
*2405 PHY_109
*2406 PHY_11
*2407 PHY_110
*2408 PHY_111
*2409 PHY_112
*2410 PHY_113
*2411 PHY_114
*2412 PHY_115
*2413 PHY_12
*2414 PHY_13
*2415 PHY_14
*2416 PHY_15
*2417 PHY_16
*2418 PHY_17
*2419 PHY_18
*2420 PHY_19
*2421 PHY_2
*2422 PHY_20
*2423 PHY_21
*2424 PHY_22
*2425 PHY_23
*2426 PHY_24
*2427 PHY_25
*2428 PHY_26
*2429 PHY_27
*2430 PHY_28
*2431 PHY_29
*2432 PHY_3
*2433 PHY_30
*2434 PHY_31
*2435 PHY_32
*2436 PHY_33
*2437 PHY_34
*2438 PHY_35
*2439 PHY_36
*2440 PHY_37
*2441 PHY_38
*2442 PHY_39
*2443 PHY_4
*2444 PHY_40
*2445 PHY_41
*2446 PHY_42
*2447 PHY_43
*2448 PHY_44
*2449 PHY_45
*2450 PHY_46
*2451 PHY_47
*2452 PHY_48
*2453 PHY_49
*2454 PHY_5
*2455 PHY_50
*2456 PHY_51
*2457 PHY_52
*2458 PHY_53
*2459 PHY_54
*2460 PHY_55
*2461 PHY_56
*2462 PHY_57
*2463 PHY_58
*2464 PHY_59
*2465 PHY_6
*2466 PHY_60
*2467 PHY_61
*2468 PHY_62
*2469 PHY_63
*2470 PHY_64
*2471 PHY_65
*2472 PHY_66
*2473 PHY_67
*2474 PHY_68
*2475 PHY_69
*2476 PHY_7
*2477 PHY_70
*2478 PHY_71
*2479 PHY_72
*2480 PHY_73
*2481 PHY_74
*2482 PHY_75
*2483 PHY_76
*2484 PHY_77
*2485 PHY_78
*2486 PHY_79
*2487 PHY_8
*2488 PHY_80
*2489 PHY_81
*2490 PHY_82
*2491 PHY_83
*2492 PHY_84
*2493 PHY_85
*2494 PHY_86
*2495 PHY_87
*2496 PHY_88
*2497 PHY_89
*2498 PHY_9
*2499 PHY_90
*2500 PHY_91
*2501 PHY_92
*2502 PHY_93
*2503 PHY_94
*2504 PHY_95
*2505 PHY_96
*2506 PHY_97
*2507 PHY_98
*2508 PHY_99
*2509 TAP_116
*2510 TAP_117
*2511 TAP_118
*2512 TAP_119
*2513 TAP_120
*2514 TAP_121
*2515 TAP_122
*2516 TAP_123
*2517 TAP_124
*2518 TAP_125
*2519 TAP_126
*2520 TAP_127
*2521 TAP_128
*2522 TAP_129
*2523 TAP_130
*2524 TAP_131
*2525 TAP_132
*2526 TAP_133
*2527 TAP_134
*2528 TAP_135
*2529 TAP_136
*2530 TAP_137
*2531 TAP_138
*2532 TAP_139
*2533 TAP_140
*2534 TAP_141
*2535 TAP_142
*2536 TAP_143
*2537 TAP_144
*2538 TAP_145
*2539 TAP_146
*2540 TAP_147
*2541 TAP_148
*2542 TAP_149
*2543 TAP_150
*2544 TAP_151
*2545 TAP_152
*2546 TAP_153
*2547 TAP_154
*2548 TAP_155
*2549 TAP_156
*2550 TAP_157
*2551 TAP_158
*2552 TAP_159
*2553 TAP_160
*2554 TAP_161
*2555 TAP_162
*2556 TAP_163
*2557 TAP_164
*2558 TAP_165
*2559 TAP_166
*2560 TAP_167
*2561 TAP_168
*2562 TAP_169
*2563 TAP_170
*2564 TAP_171
*2565 TAP_172
*2566 TAP_173
*2567 TAP_174
*2568 TAP_175
*2569 TAP_176
*2570 TAP_177
*2571 TAP_178
*2572 TAP_179
*2573 TAP_180
*2574 TAP_181
*2575 TAP_182
*2576 TAP_183
*2577 TAP_184
*2578 TAP_185
*2579 TAP_186
*2580 TAP_187
*2581 TAP_188
*2582 TAP_189
*2583 TAP_190
*2584 TAP_191
*2585 TAP_192
*2586 TAP_193
*2587 TAP_194
*2588 TAP_195
*2589 TAP_196
*2590 TAP_197
*2591 TAP_198
*2592 TAP_199
*2593 TAP_200
*2594 TAP_201
*2595 TAP_202
*2596 TAP_203
*2597 TAP_204
*2598 TAP_205
*2599 TAP_206
*2600 TAP_207
*2601 TAP_208
*2602 TAP_209
*2603 TAP_210
*2604 TAP_211
*2605 TAP_212
*2606 TAP_213
*2607 TAP_214
*2608 TAP_215
*2609 TAP_216
*2610 TAP_217
*2611 TAP_218
*2612 TAP_219
*2613 TAP_220
*2614 TAP_221
*2615 TAP_222
*2616 TAP_223
*2617 TAP_224
*2618 TAP_225
*2619 TAP_226
*2620 TAP_227
*2621 TAP_228
*2622 TAP_229
*2623 TAP_230
*2624 TAP_231
*2625 TAP_232
*2626 TAP_233
*2627 TAP_234
*2628 TAP_235
*2629 TAP_236
*2630 TAP_237
*2631 TAP_238
*2632 TAP_239
*2633 TAP_240
*2634 TAP_241
*2635 TAP_242
*2636 TAP_243
*2637 TAP_244
*2638 TAP_245
*2639 TAP_246
*2640 TAP_247
*2641 TAP_248
*2642 TAP_249
*2643 TAP_250
*2644 TAP_251
*2645 TAP_252
*2646 TAP_253
*2647 TAP_254
*2648 TAP_255
*2649 TAP_256
*2650 TAP_257
*2651 TAP_258
*2652 TAP_259
*2653 TAP_260
*2654 TAP_261
*2655 TAP_262
*2656 TAP_263
*2657 TAP_264
*2658 TAP_265
*2659 TAP_266
*2660 TAP_267
*2661 TAP_268
*2662 TAP_269
*2663 TAP_270
*2664 TAP_271
*2665 TAP_272
*2666 TAP_273
*2667 TAP_274
*2668 TAP_275
*2669 TAP_276
*2670 TAP_277
*2671 TAP_278
*2672 TAP_279
*2673 TAP_280
*2674 TAP_281
*2675 TAP_282
*2676 TAP_283
*2677 TAP_284
*2678 TAP_285
*2679 TAP_286
*2680 TAP_287
*2681 TAP_288
*2682 TAP_289
*2683 TAP_290
*2684 TAP_291
*2685 TAP_292
*2686 TAP_293
*2687 TAP_294
*2688 TAP_295
*2689 TAP_296
*2690 TAP_297
*2691 TAP_298
*2692 TAP_299
*2693 TAP_300
*2694 TAP_301
*2695 TAP_302
*2696 TAP_303
*2697 TAP_304
*2698 TAP_305
*2699 TAP_306
*2700 TAP_307
*2701 TAP_308
*2702 TAP_309
*2703 TAP_310
*2704 TAP_311
*2705 TAP_312
*2706 TAP_313
*2707 TAP_314
*2708 TAP_315
*2709 TAP_316
*2710 TAP_317
*2711 TAP_318
*2712 TAP_319
*2713 TAP_320
*2714 TAP_321
*2715 TAP_322
*2716 TAP_323
*2717 TAP_324
*2718 TAP_325
*2719 TAP_326
*2720 TAP_327
*2721 TAP_328
*2722 TAP_329
*2723 TAP_330
*2724 TAP_331
*2725 TAP_332
*2726 TAP_333
*2727 TAP_334
*2728 TAP_335
*2729 TAP_336
*2730 TAP_337
*2731 TAP_338
*2732 TAP_339
*2733 TAP_340
*2734 TAP_341
*2735 TAP_342
*2736 TAP_343
*2737 TAP_344
*2738 TAP_345
*2739 TAP_346
*2740 TAP_347
*2741 TAP_348
*2742 TAP_349
*2743 TAP_350
*2744 TAP_351
*2745 TAP_352
*2746 TAP_353
*2747 TAP_354
*2748 TAP_355
*2749 TAP_356
*2750 TAP_357
*2751 TAP_358
*2752 TAP_359
*2753 TAP_360
*2754 TAP_361
*2755 TAP_362
*2756 TAP_363
*2757 TAP_364
*2758 TAP_365
*2759 TAP_366
*2760 TAP_367
*2761 TAP_368
*2762 TAP_369
*2763 TAP_370
*2764 TAP_371
*2765 TAP_372
*2766 TAP_373
*2767 TAP_374
*2768 TAP_375
*2769 TAP_376
*2770 TAP_377
*2771 TAP_378
*2772 TAP_379
*2773 TAP_380
*2774 TAP_381
*2775 TAP_382
*2776 TAP_383
*2777 TAP_384
*2778 TAP_385
*2779 TAP_386
*2780 TAP_387
*2781 TAP_388
*2782 TAP_389
*2783 TAP_390
*2784 TAP_391
*2785 TAP_392
*2786 TAP_393
*2787 TAP_394
*2788 TAP_395
*2789 TAP_396
*2790 TAP_397
*2791 TAP_398
*2792 TAP_399
*2793 TAP_400
*2794 TAP_401
*2795 TAP_402
*2796 TAP_403
*2797 TAP_404
*2798 TAP_405
*2799 TAP_406
*2800 TAP_407
*2801 TAP_408
*2802 TAP_409
*2803 TAP_410
*2804 TAP_411
*2805 TAP_412
*2806 TAP_413
*2807 TAP_414
*2808 TAP_415
*2809 TAP_416
*2810 TAP_417
*2811 TAP_418
*2812 TAP_419
*2813 TAP_420
*2814 TAP_421
*2815 TAP_422
*2816 TAP_423
*2817 TAP_424
*2818 TAP_425
*2819 TAP_426
*2820 TAP_427
*2821 TAP_428
*2822 TAP_429
*2823 TAP_430
*2824 TAP_431
*2825 TAP_432
*2826 TAP_433
*2827 TAP_434
*2828 TAP_435
*2829 TAP_436
*2830 TAP_437
*2831 TAP_438
*2832 TAP_439
*2833 TAP_440
*2834 TAP_441
*2835 TAP_442
*2836 TAP_443
*2837 TAP_444
*2838 TAP_445
*2839 TAP_446
*2840 TAP_447
*2841 TAP_448
*2842 TAP_449
*2843 TAP_450
*2844 TAP_451
*2845 TAP_452
*2846 TAP_453
*2847 TAP_454
*2848 TAP_455
*2849 TAP_456
*2850 TAP_457
*2851 TAP_458
*2852 TAP_459
*2853 TAP_460
*2854 TAP_461
*2855 TAP_462
*2856 TAP_463
*2857 TAP_464
*2858 TAP_465
*2859 TAP_466
*2860 TAP_467
*2861 TAP_468
*2862 TAP_469
*2863 TAP_470
*2864 TAP_471
*2865 TAP_472
*2866 TAP_473
*2867 TAP_474
*2868 TAP_475
*2869 _241_
*2870 _242_
*2871 _243_
*2872 _244_
*2873 _245_
*2874 _246_
*2875 _247_
*2876 _248_
*2877 _249_
*2878 _250_
*2879 _251_
*2880 _252_
*2881 _253_
*2882 _254_
*2883 _255_
*2884 _256_
*2885 _257_
*2886 _258_
*2887 _259_
*2888 _260_
*2889 _261_
*2890 _262_
*2891 _263_
*2892 _264_
*2893 _265_
*2894 _266_
*2895 _267_
*2896 _268_
*2897 _269_
*2898 _270_
*2899 _271_
*2900 _272_
*2901 _273_
*2902 _274_
*2903 _275_
*2904 _276_
*2905 _277_
*2906 _278_
*2907 _279_
*2908 _280_
*2909 _281_
*2910 _282_
*2911 _283_
*2912 _284_
*2913 _285_
*2914 _286_
*2915 _287_
*2916 _288_
*2917 _289_
*2918 _290_
*2919 _291_
*2920 _292_
*2921 _293_
*2922 _294_
*2923 _295_
*2924 _296_
*2925 _297_
*2926 _298_
*2927 _299_
*2928 _300_
*2929 _301_
*2930 _302_
*2931 _303_
*2932 _304_
*2933 _305_
*2934 _306_
*2935 _307_
*2936 _308_
*2937 _309_
*2938 _310_
*2939 _311_
*2940 _312_
*2941 _313_
*2942 _314_
*2943 _315_
*2944 _316_
*2945 _317_
*2946 _318_
*2947 _319_
*2948 _320_
*2949 _321_
*2950 _322_
*2951 _323_
*2952 _324_
*2953 _325_
*2954 _326_
*2955 _327_
*2956 _328_
*2957 _329_
*2958 _330_
*2959 _331_
*2960 _332_
*2961 _333_
*2962 _334_
*2963 _335_
*2964 _336_
*2965 _337_
*2966 _338_
*2967 _339_
*2968 _340_
*2969 _341_
*2970 _342_
*2971 _343_
*2972 _344_
*2973 _345_
*2974 _346_
*2975 _347_
*2976 _348_
*2977 _349_
*2978 _350_
*2979 _351_
*2980 _352_
*2981 _353_
*2982 _354_
*2983 _355_
*2984 _356_
*2985 _357_
*2986 _358_
*2987 _359_
*2988 _360_
*2989 _361_
*2990 _362_
*2991 _363_
*2992 _364_
*2993 _365_
*2994 _366_
*2995 _367_
*2996 _368_
*2997 _369_
*2998 _370_
*2999 _371_
*3000 _372_
*3001 _373_
*3002 _374_
*3003 _375_
*3004 _376_
*3005 _377_
*3006 _378_
*3007 _379_
*3008 _380_
*3009 _381_
*3010 _382_
*3011 _383_
*3012 _384_
*3013 _385_
*3014 _386_
*3015 _387_
*3016 _388_
*3017 _389_
*3018 _390_
*3019 _391_
*3020 _392_
*3021 _393_
*3022 _394_
*3023 _395_
*3024 _396_
*3025 _397_
*3026 _398_
*3027 _399_
*3028 _400_
*3029 _401_
*3030 _402_
*3031 _403_
*3032 _404_
*3033 _405_
*3034 _406_
*3035 _407_
*3036 _408_
*3037 _409_
*3038 _410_
*3039 _411_
*3040 _412_
*3041 _413_
*3042 _414_
*3043 _415_
*3044 _416_
*3045 _417_
*3046 _418_
*3047 _419_
*3048 _420_
*3049 _421_
*3050 _422_
*3051 _423_
*3052 _424_
*3053 _425_
*3054 _426_
*3055 _427_
*3056 _428_
*3057 _429_
*3058 _430_
*3059 _431_
*3060 _432_
*3061 _433_
*3062 _434_
*3063 _435_
*3064 _436_
*3065 _437_
*3066 _438_
*3067 _439_
*3068 _440_
*3069 _441_
*3070 _442_
*3071 _443_
*3072 _444_
*3073 _445_
*3074 _446_
*3075 _447_
*3076 _448_
*3077 _449_
*3078 _450_
*3079 _451_
*3080 _452_
*3081 _453_
*3082 _454_
*3083 _455_
*3084 _456_
*3085 _457_
*3086 _458_
*3087 _459_
*3088 _460_
*3089 _461_
*3090 _462_
*3091 _463_
*3092 _464_
*3093 _465_
*3094 _466_
*3095 _467_
*3096 _468_
*3097 _469_
*3098 _470_
*3099 _471_
*3100 _472_
*3101 _473_
*3102 _474_
*3103 _475_
*3104 _476_
*3105 _477_
*3106 _478_
*3107 _479_
*3108 _480_
*3109 _481_
*3110 _482_
*3111 _483_
*3112 _484_
*3113 _485_
*3114 _486_
*3115 _487_
*3116 _488_
*3117 _489_
*3118 _490_
*3119 _491_
*3120 _492_
*3121 _493_
*3122 _494_
*3123 _495_
*3124 _496_
*3125 _497_
*3126 _498_
*3127 _499_
*3128 _500_
*3129 _501_
*3130 _502_
*3131 _503_
*3132 _504_
*3133 _505_
*3134 _506_
*3135 _507_
*3136 _508_
*3137 _509_
*3138 _510_
*3139 _511_
*3140 _512_
*3141 _513_
*3142 _514_
*3143 _515_
*3144 _516_
*3145 _517_
*3146 _518_
*3147 _519_
*3148 _520_
*3149 _521_
*3150 _522_
*3151 _523_
*3152 _524_
*3153 _525_
*3154 _526_
*3155 _527_
*3156 _528_
*3157 _529_
*3158 _530_
*3159 _531_
*3160 _532_
*3161 _533_
*3162 _534_
*3163 _535_
*3164 _536_
*3165 _537_
*3166 _538_
*3167 _539_
*3168 _540_
*3169 _541_
*3170 _542_
*3171 _543_
*3172 _544_
*3173 _545_
*3174 _546_
*3175 _547_
*3176 _548_
*3177 _549_
*3178 _550_
*3179 _551_
*3180 _552_
*3181 _553_
*3182 _554_
*3183 _555_
*3184 _556_
*3185 _557_
*3186 _558_
*3187 _559_
*3188 _560_
*3189 _561_
*3190 _562_
*3191 clkbuf_0_clk
*3192 clkbuf_3_0__f_clk
*3193 clkbuf_3_1__f_clk
*3194 clkbuf_3_2__f_clk
*3195 clkbuf_3_3__f_clk
*3196 clkbuf_3_4__f_clk
*3197 clkbuf_3_5__f_clk
*3198 clkbuf_3_6__f_clk
*3199 clkbuf_3_7__f_clk
*3200 fanout29
*3201 fanout30
*3202 fanout31
*3203 fanout32
*3204 fanout33
*3205 fanout34
*3206 fanout35
*3207 fanout36
*3208 fanout37
*3209 hold1
*3210 hold10
*3211 hold11
*3212 hold12
*3213 hold13
*3214 hold14
*3215 hold15
*3216 hold16
*3217 hold17
*3218 hold18
*3219 hold19
*3220 hold2
*3221 hold20
*3222 hold21
*3223 hold22
*3224 hold23
*3225 hold24
*3226 hold25
*3227 hold26
*3228 hold27
*3229 hold28
*3230 hold29
*3231 hold3
*3232 hold30
*3233 hold31
*3234 hold32
*3235 hold33
*3236 hold34
*3237 hold35
*3238 hold36
*3239 hold4
*3240 hold5
*3241 hold6
*3242 hold7
*3243 hold8
*3244 hold9
*3245 input1
*3246 input10
*3247 input11
*3248 input12
*3249 input13
*3250 input14
*3251 input15
*3252 input16
*3253 input17
*3254 input18
*3255 input19
*3256 input2
*3257 input20
*3258 input21
*3259 input22
*3260 input23
*3261 input3
*3262 input4
*3263 input5
*3264 input6
*3265 input7
*3266 input8
*3267 input9
*3268 output24
*3269 output25
*3270 output26
*3271 output27
*3272 output28

*PORTS
any_match O
cfg_en I
cfg_idx[0] I
cfg_idx[1] I
cfg_mask[0] I
cfg_mask[1] I
cfg_mask[2] I
cfg_mask[3] I
cfg_mask[4] I
cfg_mask[5] I
cfg_mask[6] I
cfg_mask[7] I
cfg_pattern[0] I
cfg_pattern[1] I
cfg_pattern[2] I
cfg_pattern[3] I
cfg_pattern[4] I
cfg_pattern[5] I
cfg_pattern[6] I
cfg_pattern[7] I
cfg_we I
clk I
data_in I
data_valid I
pattern_match[0] O
pattern_match[1] O
pattern_match[2] O
pattern_match[3] O
rst_n I

*D_NET *1 0.0018336
*CONN
*P any_match O
*I *3268:X O *D sky130_fd_sc_hd__clkbuf_4
*CAP
1 any_match 0.000916801
2 *3268:X 0.000916801
*RES
1 *3268:X any_match 27.5935 
*END

*D_NET *2 0.00214335
*CONN
*P cfg_en I
*I *3245:A I *D sky130_fd_sc_hd__clkbuf_2
*CAP
1 cfg_en 0.00107168
2 *3245:A 0.00107168
3 *3245:A *318:14 0
4 *3245:A *338:32 0
*RES
1 cfg_en *3245:A 24.3556 
*END

*D_NET *3 0.00193827
*CONN
*P cfg_idx[0] I
*I *3256:A I *D sky130_fd_sc_hd__buf_1
*CAP
1 cfg_idx[0] 0.000969134
2 *3256:A 0.000969134
*RES
1 cfg_idx[0] *3256:A 22.3021 
*END

*D_NET *4 0.00169994
*CONN
*P cfg_idx[1] I
*I *3261:A I *D sky130_fd_sc_hd__clkbuf_2
*CAP
1 cfg_idx[1] 0.000849972
2 *3261:A 0.000849972
*RES
1 cfg_idx[1] *3261:A 30.5679 
*END

*D_NET *5 0.00177526
*CONN
*P cfg_mask[0] I
*I *3262:A I *D sky130_fd_sc_hd__clkbuf_2
*CAP
1 cfg_mask[0] 0.000887629
2 *3262:A 0.000887629
*RES
1 cfg_mask[0] *3262:A 31.7821 
*END

*D_NET *6 0.00186706
*CONN
*P cfg_mask[1] I
*I *3263:A I *D sky130_fd_sc_hd__clkbuf_2
*CAP
1 cfg_mask[1] 0.000933532
2 *3263:A 0.000933532
*RES
1 cfg_mask[1] *3263:A 31.675 
*END

*D_NET *7 0.00180859
*CONN
*P cfg_mask[2] I
*I *3264:A I *D sky130_fd_sc_hd__dlymetal6s2s_1
*CAP
1 cfg_mask[2] 0.000904294
2 *3264:A 0.000904294
*RES
1 cfg_mask[2] *3264:A 27.5935 
*END

*D_NET *8 0.00167065
*CONN
*P cfg_mask[3] I
*I *3265:A I *D sky130_fd_sc_hd__dlymetal6s2s_1
*CAP
1 cfg_mask[3] 0.000835327
2 *3265:A 0.000835327
*RES
1 cfg_mask[3] *3265:A 30.4607 
*END

*D_NET *9 0.00176603
*CONN
*P cfg_mask[4] I
*I *3266:A I *D sky130_fd_sc_hd__clkbuf_2
*CAP
1 cfg_mask[4] 0.000865695
2 *3266:A 0.000865695
3 *3266:A *321:8 3.46363e-05
*RES
1 cfg_mask[4] *3266:A 30.8536 
*END

*D_NET *10 0.00209257
*CONN
*P cfg_mask[5] I
*I *3267:A I *D sky130_fd_sc_hd__clkbuf_2
*CAP
1 cfg_mask[5] 0.000951541
2 *3267:A 0.000951541
3 *3267:A *324:8 4.73286e-05
4 *3267:A *390:8 0.000142157
*RES
1 cfg_mask[5] *3267:A 32.8893 
*END

*D_NET *11 0.00268393
*CONN
*P cfg_mask[6] I
*I *3246:A I *D sky130_fd_sc_hd__clkbuf_2
*CAP
1 cfg_mask[6] 0.00134196
2 *3246:A 0.00134196
3 *3246:A *3248:A 0
*RES
1 cfg_mask[6] *3246:A 29.1592 
*END

*D_NET *12 0.00176062
*CONN
*P cfg_mask[7] I
*I *3247:A I *D sky130_fd_sc_hd__clkbuf_2
*CAP
1 cfg_mask[7] 0.00088031
2 *3247:A 0.00088031
*RES
1 cfg_mask[7] *3247:A 30.8536 
*END

*D_NET *13 0.00264786
*CONN
*P cfg_pattern[0] I
*I *3248:A I *D sky130_fd_sc_hd__clkbuf_2
*CAP
1 cfg_pattern[0] 0.00132393
2 *3248:A 0.00132393
3 *3246:A *3248:A 0
*RES
1 cfg_pattern[0] *3248:A 38.2464 
*END

*D_NET *14 0.00186574
*CONN
*P cfg_pattern[1] I
*I *3249:A I *D sky130_fd_sc_hd__buf_1
*CAP
1 cfg_pattern[1] 0.00093287
2 *3249:A 0.00093287
*RES
1 cfg_pattern[1] *3249:A 26.6146 
*END

*D_NET *15 0.00196849
*CONN
*P cfg_pattern[2] I
*I *3250:A I *D sky130_fd_sc_hd__dlymetal6s2s_1
*CAP
1 cfg_pattern[2] 0.000984246
2 *3250:A 0.000984246
*RES
1 cfg_pattern[2] *3250:A 22.1783 
*END

*D_NET *16 0.00262272
*CONN
*P cfg_pattern[3] I
*I *3251:A I *D sky130_fd_sc_hd__clkbuf_2
*CAP
1 cfg_pattern[3] 0.00131136
2 *3251:A 0.00131136
*RES
1 cfg_pattern[3] *3251:A 39.05 
*END

*D_NET *17 0.0038089
*CONN
*P cfg_pattern[4] I
*I *3252:A I *D sky130_fd_sc_hd__clkbuf_2
*CAP
1 cfg_pattern[4] 0.00190445
2 *3252:A 0
3 *17:13 0.00190445
4 *17:13 *3253:A 0
*RES
1 cfg_pattern[4] *17:13 45.875 
2 *17:13 *3252:A 13.8 
*END

*D_NET *18 0.00177979
*CONN
*P cfg_pattern[5] I
*I *3253:A I *D sky130_fd_sc_hd__clkbuf_2
*CAP
1 cfg_pattern[5] 0.000889894
2 *3253:A 0.000889894
3 *17:13 *3253:A 0
*RES
1 cfg_pattern[5] *3253:A 31.7821 
*END

*D_NET *19 0.00178241
*CONN
*P cfg_pattern[6] I
*I *3254:A I *D sky130_fd_sc_hd__clkbuf_2
*CAP
1 cfg_pattern[6] 0.000886582
2 *3254:A 0.000886582
3 *3254:A *326:12 9.25014e-06
*RES
1 cfg_pattern[6] *3254:A 31.7821 
*END

*D_NET *20 0.00291532
*CONN
*P cfg_pattern[7] I
*I *3255:A I *D sky130_fd_sc_hd__clkbuf_2
*CAP
1 cfg_pattern[7] 0.00145766
2 *3255:A 0.00145766
*RES
1 cfg_pattern[7] *3255:A 31.054 
*END

*D_NET *21 0.00197866
*CONN
*P cfg_we I
*I *3257:A I *D sky130_fd_sc_hd__buf_1
*CAP
1 cfg_we 0.000918039
2 *3257:A 0.000918039
3 *3257:A *327:6 0.00014258
*RES
1 cfg_we *3257:A 32.3714 
*END

*D_NET *22 0.0180555
*CONN
*P clk I
*I *3191:A I *D sky130_fd_sc_hd__clkbuf_16
*CAP
1 clk 0.00873146
2 *3191:A 0.00873146
3 *3191:A *2907:A 0
4 *3191:A *3134:RESET_B 0.000112789
5 *3191:A *134:16 0.00012384
6 *3191:A *153:16 0.000202301
7 *3191:A *172:20 0.000107879
8 *3191:A *273:14 4.58108e-05
*RES
1 clk *3191:A 48.0164 
*END

*D_NET *23 0.00198489
*CONN
*P data_in I
*I *3258:A I *D sky130_fd_sc_hd__buf_1
*CAP
1 data_in 0.000953553
2 *3258:A 0.000953553
3 *3258:A *319:10 1.78393e-05
4 *3258:A *331:10 5.99442e-05
*RES
1 data_in *3258:A 22.1783 
*END

*D_NET *24 0.00189351
*CONN
*P data_valid I
*I *3259:A I *D sky130_fd_sc_hd__buf_4
*CAP
1 data_valid 0.000946755
2 *3259:A 0.000946755
*RES
1 data_valid *3259:A 26.6146 
*END

*D_NET *25 0.00165711
*CONN
*P pattern_match[0] O
*I *3269:X O *D sky130_fd_sc_hd__clkbuf_4
*CAP
1 pattern_match[0] 0.00081262
2 *3269:X 0.00081262
3 pattern_match[0] *384:6 3.18676e-05
*RES
1 *3269:X pattern_match[0] 30.0321 
*END

*D_NET *26 0.00174586
*CONN
*P pattern_match[1] O
*I *3270:X O *D sky130_fd_sc_hd__clkbuf_4
*CAP
1 pattern_match[1] 0.000872931
2 *3270:X 0.000872931
*RES
1 *3270:X pattern_match[1] 31.2464 
*END

*D_NET *27 0.00187538
*CONN
*P pattern_match[2] O
*I *3271:X O *D sky130_fd_sc_hd__clkbuf_4
*CAP
1 pattern_match[2] 0.000937691
2 *3271:X 0.000937691
*RES
1 *3271:X pattern_match[2] 26.6146 
*END

*D_NET *28 0.00351352
*CONN
*P pattern_match[3] O
*I *3272:X O *D sky130_fd_sc_hd__clkbuf_4
*CAP
1 pattern_match[3] 0.00175676
2 *3272:X 0.00175676
*RES
1 *3272:X pattern_match[3] 43.0074 
*END

*D_NET *29 0.00188682
*CONN
*P rst_n I
*I *3260:A I *D sky130_fd_sc_hd__clkbuf_2
*CAP
1 rst_n 0.000943412
2 *3260:A 0.000943412
*RES
1 rst_n *3260:A 28.0042 
*END

*D_NET *32 0.000359403
*CONN
*I *3115:D I *D sky130_fd_sc_hd__dfrtp_4
*I *2952:X O *D sky130_fd_sc_hd__clkbuf_1
*CAP
1 *3115:D 0.000163767
2 *2952:X 0.000163767
3 *3115:D *3115:CLK 3.18676e-05
*RES
1 *2952:X *3115:D 20.7964 
*END

*D_NET *33 0.00064312
*CONN
*I *3116:D I *D sky130_fd_sc_hd__dfrtp_4
*I *2954:X O *D sky130_fd_sc_hd__clkbuf_1
*CAP
1 *3116:D 0.000271939
2 *2954:X 0.000271939
3 *3116:D *2954:A 0
4 *3116:D *3116:RESET_B 9.92409e-05
5 *3116:D *3117:D 0
6 *3116:D *279:52 0
7 *3116:D *320:8 0
*RES
1 *2954:X *3116:D 32.5286 
*END

*D_NET *34 0.00112103
*CONN
*I *3117:D I *D sky130_fd_sc_hd__dfrtp_4
*I *2956:X O *D sky130_fd_sc_hd__clkbuf_1
*CAP
1 *3117:D 0.000309847
2 *2956:X 0.000309847
3 *3117:D *2953:A0 0.000100735
4 *3117:D *2954:A 0.000150625
5 *3117:D *2956:A 0
6 *3117:D *143:16 9.90367e-05
7 *3117:D *195:69 0
8 *3117:D *279:52 9.37018e-05
9 *3117:D *424:14 5.72399e-05
10 *3116:D *3117:D 0
*RES
1 *2956:X *3117:D 35.35 
*END

*D_NET *35 0.000619301
*CONN
*I *3118:D I *D sky130_fd_sc_hd__dfrtp_4
*I *2958:X O *D sky130_fd_sc_hd__clkbuf_1
*CAP
1 *3118:D 0.000176671
2 *2958:X 0.000176671
3 *3118:D *2906:A 0.000125241
4 *3118:D *2906:C 0
5 *3118:D *184:16 0.000140719
*RES
1 *2958:X *3118:D 30.6 
*END

*D_NET *36 0.000483069
*CONN
*I *3119:D I *D sky130_fd_sc_hd__dfrtp_4
*I *2960:X O *D sky130_fd_sc_hd__clkbuf_1
*CAP
1 *3119:D 0.000169718
2 *2960:X 0.000169718
3 *3119:D *280:48 0
4 *3119:D *427:28 0.000143633
*RES
1 *2960:X *3119:D 30.2964 
*END

*D_NET *37 0.000908298
*CONN
*I *3120:D I *D sky130_fd_sc_hd__dfrtp_4
*I *2962:X O *D sky130_fd_sc_hd__clkbuf_1
*CAP
1 *3120:D 0.000257352
2 *2962:X 0.000257352
3 *3120:D *2980:A1 0
4 *3120:D *3139:CLK 0.000117543
5 *3120:D *207:137 0.00019384
6 *3120:D *337:37 2.89114e-05
7 *3120:D *343:73 5.33005e-05
*RES
1 *2962:X *3120:D 32.8679 
*END

*D_NET *38 0.000496877
*CONN
*I *3121:D I *D sky130_fd_sc_hd__dfrtp_4
*I *2964:X O *D sky130_fd_sc_hd__clkbuf_1
*CAP
1 *3121:D 0.00012048
2 *2964:X 0.00012048
3 *3121:D *3011:S 9.74698e-05
4 *3121:D *128:14 7.83659e-05
5 *3121:D *277:40 8.00806e-05
*RES
1 *2964:X *3121:D 29.908 
*END

*D_NET *39 0.00022721
*CONN
*I *3122:D I *D sky130_fd_sc_hd__dfrtp_4
*I *2966:X O *D sky130_fd_sc_hd__clkbuf_1
*CAP
1 *3122:D 3.32706e-05
2 *2966:X 3.32706e-05
3 *3122:D *2965:A0 3.57844e-05
4 *3122:D *327:10 0.000104974
5 *3122:D *430:14 1.99099e-05
*RES
1 *2966:X *3122:D 28.9393 
*END

*D_NET *40 0.000444184
*CONN
*I *3123:D I *D sky130_fd_sc_hd__dfrtp_1
*I *2971:X O *D sky130_fd_sc_hd__clkbuf_1
*CAP
1 *3123:D 9.24388e-05
2 *2971:X 9.24388e-05
3 *3123:D *109:12 0
4 *3123:D *128:14 7.6644e-05
5 *3123:D *277:40 0.000127439
6 *3123:D *318:55 5.52238e-05
*RES
1 *2971:X *3123:D 29.7786 
*END

*D_NET *41 0.000386997
*CONN
*I *3124:D I *D sky130_fd_sc_hd__dfrtp_1
*I *2976:X O *D sky130_fd_sc_hd__clkbuf_1
*CAP
1 *3124:D 0.00016069
2 *2976:X 0.00016069
3 *3124:D *2917:D 7.49387e-06
4 *3124:D *2976:A 7.43578e-06
5 *3124:D *3124:CLK 1.39726e-05
6 *3124:D *153:16 3.67142e-05
*RES
1 *2976:X *3124:D 20.7964 
*END

*D_NET *42 0.000199393
*CONN
*I *3125:D I *D sky130_fd_sc_hd__dfrtp_1
*I *2981:X O *D sky130_fd_sc_hd__clkbuf_1
*CAP
1 *3125:D 9.96967e-05
2 *2981:X 9.96967e-05
3 *3125:D *3176:CLK 0
*RES
1 *2981:X *3125:D 29.2429 
*END

*D_NET *43 0.000889711
*CONN
*I *3126:D I *D sky130_fd_sc_hd__dfrtp_1
*I *2986:X O *D sky130_fd_sc_hd__clkbuf_1
*CAP
1 *3126:D 0.000218891
2 *2986:X 0.000218891
3 *3126:D *2909:A1 1.24529e-05
4 *3126:D *2961:A1 2.29112e-05
5 *3126:D *3043:A1 6.95627e-05
6 *3126:D *207:137 0.000191859
7 *3126:D *207:149 0.000120329
8 *3126:D *411:23 3.48139e-05
*RES
1 *2986:X *3126:D 32.6179 
*END

*D_NET *44 0.000345251
*CONN
*I *3127:D I *D sky130_fd_sc_hd__dfrtp_1
*I *2988:X O *D sky130_fd_sc_hd__clkbuf_1
*CAP
1 *3127:D 0.000111597
2 *2988:X 0.000111597
3 *3127:D *2988:A 6.87574e-05
4 *3127:D *3127:CLK 5.33005e-05
*RES
1 *2988:X *3127:D 20.7964 
*END

*D_NET *45 0.000577564
*CONN
*I *3128:D I *D sky130_fd_sc_hd__dfrtp_1
*I *2990:X O *D sky130_fd_sc_hd__clkbuf_1
*CAP
1 *3128:D 0.000195895
2 *2990:X 0.000195895
3 *3128:D *3128:RESET_B 5.52238e-05
4 *3128:D *128:14 8.00806e-05
5 *3128:D *172:20 5.04705e-05
6 *3128:D *195:100 0
*RES
1 *2990:X *3128:D 30.8321 
*END

*D_NET *46 0.000381222
*CONN
*I *3129:D I *D sky130_fd_sc_hd__dfrtp_1
*I *2992:X O *D sky130_fd_sc_hd__clkbuf_1
*CAP
1 *3129:D 9.30683e-05
2 *2992:X 9.30683e-05
3 *3129:D *3129:RESET_B 1.19813e-05
4 *3129:D *3197:A 2.33087e-05
5 *3129:D *199:63 4.57846e-05
6 *3129:D *279:10 3.50746e-05
7 *3129:D *279:16 7.89362e-05
*RES
1 *2992:X *3129:D 30.0107 
*END

*D_NET *47 0.000463007
*CONN
*I *3130:D I *D sky130_fd_sc_hd__dfrtp_1
*I *2994:X O *D sky130_fd_sc_hd__clkbuf_1
*CAP
1 *3130:D 0.000231503
2 *2994:X 0.000231503
*RES
1 *2994:X *3130:D 30.7071 
*END

*D_NET *48 0.000534724
*CONN
*I *3131:D I *D sky130_fd_sc_hd__dfrtp_1
*I *2996:X O *D sky130_fd_sc_hd__clkbuf_1
*CAP
1 *3131:D 0.000129185
2 *2996:X 0.000129185
3 *3131:D *2996:A 0
4 *3131:D *3131:CLK 0.000131574
5 *3131:D *202:44 9.14786e-05
6 *3131:D *427:72 5.33005e-05
*RES
1 *2996:X *3131:D 30.542 
*END

*D_NET *49 0.000612326
*CONN
*I *3132:D I *D sky130_fd_sc_hd__dfrtp_1
*I *2998:X O *D sky130_fd_sc_hd__clkbuf_1
*CAP
1 *3132:D 0.000251672
2 *2998:X 0.000251672
3 *3132:D *202:16 0
4 *3132:D *326:43 0.000108982
*RES
1 *2998:X *3132:D 31.9571 
*END

*D_NET *50 0.000362994
*CONN
*I *3133:D I *D sky130_fd_sc_hd__dfrtp_1
*I *3000:X O *D sky130_fd_sc_hd__clkbuf_1
*CAP
1 *3133:D 0.000170271
2 *3000:X 0.000170271
3 *3133:D *3032:A 1.31795e-06
4 *3133:D *3133:CLK 2.11336e-05
*RES
1 *3000:X *3133:D 20.7964 
*END

*D_NET *51 0.00021997
*CONN
*I *3134:D I *D sky130_fd_sc_hd__dfrtp_1
*I *3002:X O *D sky130_fd_sc_hd__clkbuf_1
*CAP
1 *3134:D 5.93961e-05
2 *3002:X 5.93961e-05
3 *3134:D *172:20 0.000101178
*RES
1 *3002:X *3134:D 28.9393 
*END

*D_NET *52 0.000990341
*CONN
*I *3135:D I *D sky130_fd_sc_hd__dfrtp_1
*I *3004:X O *D sky130_fd_sc_hd__clkbuf_1
*CAP
1 *3135:D 0.000355567
2 *3004:X 0.000355567
3 *3135:D *3004:A 5.68713e-05
4 *3135:D *351:25 0.000128161
5 *3135:D *399:14 9.04846e-05
6 *3135:D *399:16 3.69047e-06
*RES
1 *3004:X *3135:D 33.1893 
*END

*D_NET *53 0.000543137
*CONN
*I *3136:D I *D sky130_fd_sc_hd__dfrtp_1
*I *3006:X O *D sky130_fd_sc_hd__clkbuf_1
*CAP
1 *3136:D 0.000226679
2 *3006:X 0.000226679
3 *3136:D *2893:A1 3.47737e-05
4 *3136:D *2893:A2 0
5 *3136:D *3168:D 0
6 *3136:D *275:27 5.50052e-05
*RES
1 *3006:X *3136:D 31.9036 
*END

*D_NET *54 0.000526134
*CONN
*I *3137:D I *D sky130_fd_sc_hd__dfrtp_1
*I *3008:X O *D sky130_fd_sc_hd__clkbuf_1
*CAP
1 *3137:D 0.000145909
2 *3008:X 0.000145909
3 *3137:D *2881:A1 3.81751e-05
4 *3137:D *2900:B1 6.1602e-05
5 *3137:D *2901:B1 7.25873e-06
6 *3137:D *324:10 0.000124749
7 *3137:D *393:23 2.53112e-06
*RES
1 *3008:X *3137:D 31.0107 
*END

*D_NET *55 0.000904177
*CONN
*I *3138:D I *D sky130_fd_sc_hd__dfrtp_1
*I *3010:X O *D sky130_fd_sc_hd__clkbuf_1
*CAP
1 *3138:D 0.000221989
2 *3010:X 0.000221989
3 *3138:D *2955:A0 6.50255e-05
4 *3138:D *2957:A0 9.25014e-06
5 *3138:D *3138:CLK 0.00010096
6 *3138:D *120:18 0
7 *3138:D *139:16 0
8 *3138:D *324:31 0.000197269
9 *3138:D *332:49 8.76933e-05
*RES
1 *3010:X *3138:D 33.0643 
*END

*D_NET *56 0.000541177
*CONN
*I *3139:D I *D sky130_fd_sc_hd__dfrtp_1
*I *3012:X O *D sky130_fd_sc_hd__clkbuf_1
*CAP
1 *3139:D 0.00019658
2 *3012:X 0.00019658
3 *3139:D *3160:CLK 0.000125717
4 *3139:D *206:59 0
5 *3139:D *277:17 2.22999e-05
*RES
1 *3012:X *3139:D 30.6 
*END

*D_NET *57 0.00109493
*CONN
*I *3140:D I *D sky130_fd_sc_hd__dfrtp_1
*I *3014:X O *D sky130_fd_sc_hd__clkbuf_1
*CAP
1 *3140:D 0.000389495
2 *3014:X 0.000389495
3 *3140:D *3132:CLK 7.83659e-05
4 *3140:D *3140:RESET_B 0
5 *3140:D *275:70 5.52302e-05
6 *3140:D *326:43 0.000182343
7 *3140:D *339:20 0
*RES
1 *3014:X *3140:D 34.8679 
*END

*D_NET *58 0.000542965
*CONN
*I *3141:D I *D sky130_fd_sc_hd__dfrtp_1
*I *3016:X O *D sky130_fd_sc_hd__clkbuf_1
*CAP
1 *3141:D 0.000196337
2 *3016:X 0.000196337
3 *3141:D *3016:A 0
4 *3141:D *3141:CLK 5.12538e-05
5 *3141:D *332:29 9.90367e-05
*RES
1 *3016:X *3141:D 30.4438 
*END

*D_NET *59 0.00097408
*CONN
*I *3142:D I *D sky130_fd_sc_hd__dfrtp_1
*I *3018:X O *D sky130_fd_sc_hd__clkbuf_1
*CAP
1 *3142:D 0.000190644
2 *3018:X 0.000190644
3 *3142:D *2895:A1 0.000195547
4 *3142:D *3018:A 2.28499e-05
5 *3142:D *198:33 0.000195547
6 *3142:D *278:8 0.000178847
*RES
1 *3018:X *3142:D 32.3321 
*END

*D_NET *60 0.000368062
*CONN
*I *3143:D I *D sky130_fd_sc_hd__dfrtp_1
*I *3020:X O *D sky130_fd_sc_hd__clkbuf_1
*CAP
1 *3143:D 0.000105042
2 *3020:X 0.000105042
3 *3143:D *2925:B1 5.71472e-05
4 *3143:D *321:12 9.15804e-05
5 *3143:D *321:14 9.25014e-06
6 *3143:D *423:31 0
*RES
1 *3020:X *3143:D 29.475 
*END

*D_NET *61 0.000455069
*CONN
*I *3144:D I *D sky130_fd_sc_hd__dfrtp_1
*I *3022:X O *D sky130_fd_sc_hd__clkbuf_1
*CAP
1 *3144:D 0.000217884
2 *3022:X 0.000217884
3 *3144:D *3144:CLK 1.93007e-05
*RES
1 *3022:X *3144:D 30.725 
*END

*D_NET *62 0.000295299
*CONN
*I *3145:D I *D sky130_fd_sc_hd__dfrtp_1
*I *3024:X O *D sky130_fd_sc_hd__clkbuf_1
*CAP
1 *3145:D 0.000106621
2 *3024:X 0.000106621
3 *3145:D *3024:A 3.97657e-05
4 *3145:D *3145:CLK 4.22908e-05
*RES
1 *3024:X *3145:D 20.7964 
*END

*D_NET *63 0.000533104
*CONN
*I *3146:D I *D sky130_fd_sc_hd__dfrtp_1
*I *3026:X O *D sky130_fd_sc_hd__clkbuf_1
*CAP
1 *3146:D 0.000109036
2 *3026:X 0.000109036
3 *3146:D *3154:D 5.66647e-05
4 *3146:D *203:125 5.71472e-05
5 *3146:D *281:10 0.000171375
6 *3146:D *281:23 9.25014e-06
7 *3146:D *320:8 2.05938e-05
*RES
1 *3026:X *3146:D 30.3857 
*END

*D_NET *64 0.000520437
*CONN
*I *3147:D I *D sky130_fd_sc_hd__dfrtp_1
*I *3028:X O *D sky130_fd_sc_hd__clkbuf_1
*CAP
1 *3147:D 0.000187832
2 *3028:X 0.000187832
3 *3147:D *318:24 0.000144773
*RES
1 *3028:X *3147:D 30.6 
*END

*D_NET *65 0.000230918
*CONN
*I *3148:D I *D sky130_fd_sc_hd__dfrtp_1
*I *3030:X O *D sky130_fd_sc_hd__clkbuf_1
*CAP
1 *3148:D 9.30534e-05
2 *3030:X 9.30534e-05
3 *3148:D *3030:A 4.48113e-05
*RES
1 *3030:X *3148:D 29.2429 
*END

*D_NET *66 0.000482492
*CONN
*I *3149:D I *D sky130_fd_sc_hd__dfrtp_1
*I *3032:X O *D sky130_fd_sc_hd__clkbuf_1
*CAP
1 *3149:D 6.26761e-05
2 *3032:X 6.26761e-05
3 *3149:D *2947:C 6.84283e-05
4 *3149:D *3149:CLK 0.000288711
*RES
1 *3032:X *3149:D 21.3321 
*END

*D_NET *67 0.000464256
*CONN
*I *3150:D I *D sky130_fd_sc_hd__dfrtp_1
*I *3034:X O *D sky130_fd_sc_hd__clkbuf_1
*CAP
1 *3150:D 0.000180498
2 *3034:X 0.000180498
3 *3150:D *275:37 0.00010326
4 *3150:D *344:37 0
*RES
1 *3034:X *3150:D 30.2964 
*END

*D_NET *68 0.000263409
*CONN
*I *3151:D I *D sky130_fd_sc_hd__dfrtp_1
*I *3036:X O *D sky130_fd_sc_hd__clkbuf_1
*CAP
1 *3151:D 0.000110909
2 *3036:X 0.000110909
3 *3151:D *3036:A 4.15914e-05
4 *3151:D *3183:CLK 0
*RES
1 *3036:X *3151:D 29.6 
*END

*D_NET *69 0.000526633
*CONN
*I *3152:D I *D sky130_fd_sc_hd__dfrtp_1
*I *3038:X O *D sky130_fd_sc_hd__clkbuf_1
*CAP
1 *3152:D 0.000159865
2 *3038:X 0.000159865
3 *3152:D *3152:CLK 6.05161e-06
4 *3152:D *3184:CLK 0.000109383
5 *3152:D *203:14 9.14676e-05
6 *3152:D *340:22 0
*RES
1 *3038:X *3152:D 31.2071 
*END

*D_NET *70 0.000692826
*CONN
*I *3153:D I *D sky130_fd_sc_hd__dfrtp_1
*I *3040:X O *D sky130_fd_sc_hd__clkbuf_1
*CAP
1 *3153:D 0.000214333
2 *3040:X 0.000214333
3 *3153:D *2921:A2 3.9733e-05
4 *3153:D *3153:CLK 0.000101062
5 *3153:D *346:67 7.74135e-05
6 *3153:D *409:12 4.59514e-05
*RES
1 *3040:X *3153:D 31.2429 
*END

*D_NET *71 0.00144424
*CONN
*I *3154:D I *D sky130_fd_sc_hd__dfrtp_1
*I *3042:X O *D sky130_fd_sc_hd__clkbuf_1
*CAP
1 *3154:D 0.000343902
2 *3042:X 0.000343902
3 *3154:D *182:12 0.000141975
4 *3154:D *281:23 0.000120573
5 *3154:D *320:8 0.000437227
6 *3146:D *3154:D 5.66647e-05
*RES
1 *3042:X *3154:D 35.7786 
*END

*D_NET *72 0.000437545
*CONN
*I *3155:D I *D sky130_fd_sc_hd__dfrtp_1
*I *3044:X O *D sky130_fd_sc_hd__clkbuf_1
*CAP
1 *3155:D 0.000189402
2 *3044:X 0.000189402
3 *3155:D *3155:CLK 3.53199e-05
4 *3155:D *340:8 2.34204e-05
*RES
1 *3044:X *3155:D 30.1759 
*END

*D_NET *73 0.000644045
*CONN
*I *3156:D I *D sky130_fd_sc_hd__dfrtp_1
*I *3046:X O *D sky130_fd_sc_hd__clkbuf_1
*CAP
1 *3156:D 0.000285196
2 *3046:X 0.000285196
3 *3156:D *3029:A1 1.00375e-05
4 *3156:D *274:16 3.79467e-05
5 *3156:D *326:14 2.56694e-05
*RES
1 *3046:X *3156:D 31.5286 
*END

*D_NET *74 0.00048719
*CONN
*I *3157:D I *D sky130_fd_sc_hd__dfrtp_1
*I *3048:X O *D sky130_fd_sc_hd__clkbuf_1
*CAP
1 *3157:D 0.000128181
2 *3048:X 0.000128181
3 *3157:D *2889:B1 0.000129868
4 *3157:D *3047:S 0.00010096
5 *3157:D *342:56 0
*RES
1 *3048:X *3157:D 30.1893 
*END

*D_NET *75 0.000476089
*CONN
*I *3158:D I *D sky130_fd_sc_hd__dfrtp_1
*I *3050:X O *D sky130_fd_sc_hd__clkbuf_1
*CAP
1 *3158:D 0.000196922
2 *3050:X 0.000196922
3 *3158:D *198:29 2.89016e-05
4 *3158:D *275:37 0
5 *3158:D *341:10 0
6 *3158:D *344:12 5.33433e-05
*RES
1 *3050:X *3158:D 30.725 
*END

*D_NET *76 0.000255168
*CONN
*I *3159:D I *D sky130_fd_sc_hd__dfrtp_1
*I *3052:X O *D sky130_fd_sc_hd__clkbuf_1
*CAP
1 *3159:D 0.000127584
2 *3052:X 0.000127584
*RES
1 *3052:X *3159:D 20.7964 
*END

*D_NET *77 0.000293945
*CONN
*I *3160:D I *D sky130_fd_sc_hd__dfrtp_1
*I *3054:X O *D sky130_fd_sc_hd__clkbuf_1
*CAP
1 *3160:D 0.000104172
2 *3054:X 0.000104172
3 *3160:D *2917:D 2.27416e-05
4 *3160:D *3054:A 6.28601e-05
5 *3160:D *3160:CLK 0
*RES
1 *3054:X *3160:D 29.7786 
*END

*D_NET *78 0.000412104
*CONN
*I *3161:D I *D sky130_fd_sc_hd__dfrtp_1
*I *3056:X O *D sky130_fd_sc_hd__clkbuf_1
*CAP
1 *3161:D 0.000120894
2 *3056:X 0.000120894
3 *3161:D *3056:A 5.49489e-05
4 *3161:D *3161:CLK 2.23592e-05
5 *3161:D *3161:RESET_B 5.71472e-05
6 *3161:D *202:126 3.58616e-05
*RES
1 *3056:X *3161:D 21.2071 
*END

*D_NET *79 0.000540916
*CONN
*I *3162:D I *D sky130_fd_sc_hd__dfrtp_1
*I *3058:X O *D sky130_fd_sc_hd__clkbuf_1
*CAP
1 *3162:D 0.000217231
2 *3058:X 0.000217231
3 *3162:D *3057:S 0.000106455
4 *3162:D *280:78 0
5 *3162:D *348:77 0
*RES
1 *3058:X *3162:D 31.8321 
*END

*D_NET *80 0.000562081
*CONN
*I *3163:D I *D sky130_fd_sc_hd__dfrtp_1
*I *3060:X O *D sky130_fd_sc_hd__clkbuf_1
*CAP
1 *3163:D 0.000176829
2 *3060:X 0.000176829
3 *3163:D *3060:A 0.000105163
4 *3163:D *3163:RESET_B 0.00010326
5 *3163:D *277:103 0
*RES
1 *3060:X *3163:D 30.7071 
*END

*D_NET *81 0.000422539
*CONN
*I *3164:D I *D sky130_fd_sc_hd__dfrtp_1
*I *3062:X O *D sky130_fd_sc_hd__clkbuf_1
*CAP
1 *3164:D 0.000150969
2 *3062:X 0.000150969
3 *3164:D *3062:A 1.97695e-05
4 *3164:D *3172:RESET_B 0
5 *3164:D *194:36 0
6 *3164:D *275:47 0.000100831
*RES
1 *3062:X *3164:D 30.2786 
*END

*D_NET *82 0.0008398
*CONN
*I *3165:D I *D sky130_fd_sc_hd__dfrtp_1
*I *3064:X O *D sky130_fd_sc_hd__clkbuf_1
*CAP
1 *3165:D 0.000233008
2 *3064:X 0.000233008
3 *3165:D *2938:B1 0.000143362
4 *3165:D *206:104 0.000170661
5 *3165:D *344:49 5.97623e-05
*RES
1 *3064:X *3165:D 32.3143 
*END

*D_NET *83 0.000396246
*CONN
*I *3166:D I *D sky130_fd_sc_hd__dfrtp_1
*I *3066:X O *D sky130_fd_sc_hd__clkbuf_1
*CAP
1 *3166:D 0.000147568
2 *3066:X 0.000147568
3 *3166:D *194:82 5.62995e-05
4 *3166:D *327:10 4.48113e-05
5 *3166:D *336:10 0
*RES
1 *3066:X *3166:D 30.1893 
*END

*D_NET *84 0.000303474
*CONN
*I *3167:D I *D sky130_fd_sc_hd__dfrtp_1
*I *3068:X O *D sky130_fd_sc_hd__clkbuf_1
*CAP
1 *3167:D 0.000143021
2 *3068:X 0.000143021
3 *3167:D *3068:A 7.43578e-06
4 *3167:D *279:52 9.99644e-06
*RES
1 *3068:X *3167:D 20.9214 
*END

*D_NET *85 0.000931415
*CONN
*I *3168:D I *D sky130_fd_sc_hd__dfrtp_1
*I *3070:X O *D sky130_fd_sc_hd__clkbuf_1
*CAP
1 *3168:D 0.000403475
2 *3070:X 0.000403475
3 *3168:D *3168:CLK 6.20461e-05
4 *3168:D *173:10 0
5 *3168:D *202:27 0
6 *3168:D *322:28 5.41609e-05
7 *3168:D *424:81 8.25843e-06
8 *3136:D *3168:D 0
*RES
1 *3070:X *3168:D 34.1714 
*END

*D_NET *86 0.000420361
*CONN
*I *3169:D I *D sky130_fd_sc_hd__dfrtp_1
*I *3072:X O *D sky130_fd_sc_hd__clkbuf_1
*CAP
1 *3169:D 0.000157778
2 *3072:X 0.000157778
3 *3169:D *3169:CLK 5.95114e-05
4 *3169:D *206:181 4.52931e-05
5 *3169:D *345:8 0
*RES
1 *3072:X *3169:D 20.7964 
*END

*D_NET *87 0.000458997
*CONN
*I *3170:D I *D sky130_fd_sc_hd__dfrtp_1
*I *3074:X O *D sky130_fd_sc_hd__clkbuf_1
*CAP
1 *3170:D 0.000174968
2 *3074:X 0.000174968
3 *3170:D *3170:RESET_B 7.20217e-06
4 *3170:D *348:104 0.000101859
*RES
1 *3074:X *3170:D 31.0107 
*END

*D_NET *88 0.000340843
*CONN
*I *3171:D I *D sky130_fd_sc_hd__dfrtp_1
*I *3076:X O *D sky130_fd_sc_hd__clkbuf_1
*CAP
1 *3171:D 0.000120903
2 *3076:X 0.000120903
3 *3171:D *3076:A 3.92854e-05
4 *3171:D *202:71 0
5 *3171:D *277:123 5.97518e-05
*RES
1 *3076:X *3171:D 29.6402 
*END

*D_NET *89 0.000403471
*CONN
*I *3172:D I *D sky130_fd_sc_hd__dfrtp_1
*I *3078:X O *D sky130_fd_sc_hd__clkbuf_1
*CAP
1 *3172:D 0.000153275
2 *3078:X 0.000153275
3 *3172:D *2973:A 0
4 *3172:D *3172:CLK 6.07506e-05
5 *3172:D *194:20 1.69175e-05
6 *3172:D *275:70 1.92528e-05
*RES
1 *3078:X *3172:D 30.0107 
*END

*D_NET *90 0.00047489
*CONN
*I *3173:D I *D sky130_fd_sc_hd__dfrtp_1
*I *3080:X O *D sky130_fd_sc_hd__clkbuf_1
*CAP
1 *3173:D 0.000157484
2 *3080:X 0.000157484
3 *3173:D *3080:A 5.33978e-05
4 *3173:D *3181:CLK 0
5 *3173:D *3237:A 0.000106524
6 *3173:D *319:16 0
7 *3173:D *319:22 0
*RES
1 *3080:X *3173:D 30.7071 
*END

*D_NET *91 0.000423343
*CONN
*I *3174:D I *D sky130_fd_sc_hd__dfrtp_1
*I *3082:X O *D sky130_fd_sc_hd__clkbuf_1
*CAP
1 *3174:D 0.000138319
2 *3082:X 0.000138319
3 *3174:D *198:104 0.00010096
4 *3174:D *278:20 0
5 *3174:D *328:14 4.57445e-05
*RES
1 *3082:X *3174:D 30.1893 
*END

*D_NET *92 0.000381944
*CONN
*I *3175:D I *D sky130_fd_sc_hd__dfrtp_1
*I *3084:X O *D sky130_fd_sc_hd__clkbuf_1
*CAP
1 *3175:D 0.000155972
2 *3084:X 0.000155972
3 *3175:D *3084:A 4.10886e-05
4 *3175:D *3175:CLK 2.89114e-05
*RES
1 *3084:X *3175:D 21.225 
*END

*D_NET *93 0.000555308
*CONN
*I *3176:D I *D sky130_fd_sc_hd__dfrtp_1
*I *3086:X O *D sky130_fd_sc_hd__clkbuf_1
*CAP
1 *3176:D 0.000245542
2 *3086:X 0.000245542
3 *3176:D *340:8 6.42242e-05
*RES
1 *3086:X *3176:D 31.0107 
*END

*D_NET *94 0.000308744
*CONN
*I *3177:D I *D sky130_fd_sc_hd__dfrtp_1
*I *3088:X O *D sky130_fd_sc_hd__clkbuf_1
*CAP
1 *3177:D 0.0001017
2 *3088:X 0.0001017
3 *3177:D *3177:CLK 5.52238e-05
4 *3177:D *3177:RESET_B 5.01213e-05
*RES
1 *3088:X *3177:D 29.475 
*END

*D_NET *95 0.00211869
*CONN
*I *3178:D I *D sky130_fd_sc_hd__dfrtp_1
*I *3090:X O *D sky130_fd_sc_hd__clkbuf_1
*CAP
1 *3178:D 0.00088673
2 *3090:X 0.00088673
3 *3178:D *3106:A 7.77751e-05
4 *3178:D *3178:CLK 8.44175e-05
5 *3178:D *3218:A 0.000183035
*RES
1 *3090:X *3178:D 39.35 
*END

*D_NET *96 0.000552781
*CONN
*I *3179:D I *D sky130_fd_sc_hd__dfrtp_1
*I *3092:X O *D sky130_fd_sc_hd__clkbuf_1
*CAP
1 *3179:D 0.000229979
2 *3092:X 0.000229979
3 *3179:D *2909:B1 5.71472e-05
4 *3179:D *3092:A 3.80953e-06
5 *3179:D *3187:CLK 3.18676e-05
6 *3179:D *3187:RESET_B 0
7 *3179:D *276:99 0
*RES
1 *3092:X *3179:D 31.3321 
*END

*D_NET *97 0.00117055
*CONN
*I *3180:D I *D sky130_fd_sc_hd__dfrtp_1
*I *3094:X O *D sky130_fd_sc_hd__clkbuf_1
*CAP
1 *3180:D 0.000479346
2 *3094:X 0.000479346
3 *3180:D *3188:CLK 0.000168934
4 *3180:D *3188:RESET_B 0
5 *3180:D *307:10 0
6 *3180:D *325:10 4.29272e-05
7 *3180:D *339:56 0
*RES
1 *3094:X *3180:D 34.8143 
*END

*D_NET *98 0.0015275
*CONN
*I *3181:D I *D sky130_fd_sc_hd__dfrtp_1
*I *3096:X O *D sky130_fd_sc_hd__clkbuf_1
*CAP
1 *3181:D 0.000501428
2 *3096:X 0.000501428
3 *3181:D *2918:B1 7.83587e-05
4 *3181:D *198:63 0.00044629
5 *3181:D *335:12 0
*RES
1 *3096:X *3181:D 34.9795 
*END

*D_NET *99 0.000656016
*CONN
*I *3182:D I *D sky130_fd_sc_hd__dfrtp_1
*I *3098:X O *D sky130_fd_sc_hd__clkbuf_1
*CAP
1 *3182:D 0.000104189
2 *3098:X 0.000104189
3 *3182:D *2935:B1 0.000173097
4 *3182:D *206:146 0.00014183
5 *3182:D *278:28 7.32173e-05
6 *3182:D *327:10 5.94923e-05
*RES
1 *3098:X *3182:D 31.2071 
*END

*D_NET *100 0.000299603
*CONN
*I *3183:D I *D sky130_fd_sc_hd__dfrtp_1
*I *3100:X O *D sky130_fd_sc_hd__clkbuf_1
*CAP
1 *3183:D 0.000118468
2 *3100:X 0.000118468
3 *3183:D *3183:CLK 5.52302e-05
4 *3183:D *347:80 7.43578e-06
*RES
1 *3100:X *3183:D 20.7964 
*END

*D_NET *101 0.000859031
*CONN
*I *3184:D I *D sky130_fd_sc_hd__dfrtp_1
*I *3102:X O *D sky130_fd_sc_hd__clkbuf_1
*CAP
1 *3184:D 0.000301626
2 *3102:X 0.000301626
3 *3184:D *3037:A0 6.04256e-05
4 *3184:D *3038:A 7.43578e-06
5 *3184:D *3102:A 4.15914e-05
6 *3184:D *3144:RESET_B 5.33882e-05
7 *3184:D *3184:RESET_B 5.03772e-05
8 *3184:D *207:118 0
9 *3184:D *207:137 0
10 *3184:D *325:20 0
11 *3184:D *339:91 4.25619e-05
*RES
1 *3102:X *3184:D 33.7429 
*END

*D_NET *102 0.000302227
*CONN
*I *3185:D I *D sky130_fd_sc_hd__dfrtp_1
*I *3104:X O *D sky130_fd_sc_hd__clkbuf_1
*CAP
1 *3185:D 0.000120429
2 *3104:X 0.000120429
3 *3185:D *3104:A 1.33343e-05
4 *3185:D *206:181 4.8035e-05
*RES
1 *3104:X *3185:D 20.7964 
*END

*D_NET *103 0.000350336
*CONN
*I *3186:D I *D sky130_fd_sc_hd__dfrtp_1
*I *3106:X O *D sky130_fd_sc_hd__clkbuf_1
*CAP
1 *3186:D 0.000129916
2 *3106:X 0.000129916
3 *3186:D *3186:CLK 4.29561e-05
4 *3186:D *320:8 3.92757e-05
5 *3186:D *384:40 8.27184e-06
*RES
1 *3106:X *3186:D 29.6402 
*END

*D_NET *104 0.000415125
*CONN
*I *3187:D I *D sky130_fd_sc_hd__dfrtp_1
*I *3108:X O *D sky130_fd_sc_hd__clkbuf_1
*CAP
1 *3187:D 0.000136138
2 *3108:X 0.000136138
3 *3187:D *3092:A 0.00014285
*RES
1 *3108:X *3187:D 30.2964 
*END

*D_NET *105 0.00181852
*CONN
*I *3188:D I *D sky130_fd_sc_hd__dfrtp_1
*I *3110:X O *D sky130_fd_sc_hd__clkbuf_1
*CAP
1 *3188:D 0.000625952
2 *3110:X 0.000625952
3 *3188:D *2982:B 7.43578e-06
4 *3188:D *2983:A 2.56694e-05
5 *3188:D *315:8 0
6 *3188:D *340:22 0.000432551
7 *3188:D *340:30 0.00010096
*RES
1 *3110:X *3188:D 40.475 
*END

*D_NET *106 0.00147885
*CONN
*I *3189:D I *D sky130_fd_sc_hd__dfrtp_1
*I *3112:X O *D sky130_fd_sc_hd__clkbuf_1
*CAP
1 *3189:D 0.000491817
2 *3112:X 0.000491817
3 *3189:D *3112:A 3.92854e-05
4 *3189:D *3165:CLK 0.000272203
5 *3189:D *202:71 0.000183726
6 *3189:D *206:104 0
*RES
1 *3112:X *3189:D 34.9795 
*END

*D_NET *107 0.000519469
*CONN
*I *3190:D I *D sky130_fd_sc_hd__dfrtp_1
*I *3114:X O *D sky130_fd_sc_hd__clkbuf_1
*CAP
1 *3190:D 0.000182892
2 *3114:X 0.000182892
3 *3190:D *2935:B1 0
4 *3190:D *3190:CLK 3.92757e-05
5 *3190:D *194:36 1.72894e-05
6 *3190:D *206:146 9.71197e-05
*RES
1 *3114:X *3190:D 30.5464 
*END

*D_NET *108 0.000721833
*CONN
*I *2870:B1 I *D sky130_fd_sc_hd__a21o_1
*I *2869:Y O *D sky130_fd_sc_hd__o21ai_1
*CAP
1 *2870:B1 0.000202064
2 *2869:Y 0.000202064
3 *2870:B1 *2869:A1 0
4 *2870:B1 *2869:B1 6.86699e-05
5 *2870:B1 *3047:S 5.49544e-05
6 *2870:B1 *194:108 0
7 *2870:B1 *277:90 9.83388e-05
8 *2870:B1 *427:32 3.42816e-05
9 *2870:B1 *427:70 6.14594e-05
*RES
1 *2869:Y *2870:B1 32.3679 
*END

*D_NET *109 0.00449119
*CONN
*I *2877:A I *D sky130_fd_sc_hd__and4_1
*I *2870:X O *D sky130_fd_sc_hd__a21o_1
*CAP
1 *2877:A 4.39326e-05
2 *2870:X 0.00110818
3 *109:12 0.00115212
4 *2877:A *424:28 0.00010096
5 *109:12 *2889:B1 0.000256074
6 *109:12 *2976:A 1.0946e-05
7 *109:12 *3047:S 0.000141486
8 *109:12 *3124:CLK 0.000311681
9 *109:12 *128:14 0.000398669
10 *109:12 *195:115 0.00012966
11 *109:12 *277:40 0
12 *109:12 *342:49 0.000345152
13 *109:12 *342:56 0.000311553
14 *109:12 *343:37 3.92854e-05
15 *109:12 *427:28 0.000141486
16 *3123:D *109:12 0
*RES
1 *2870:X *109:12 49.55 
2 *109:12 *2877:A 10.2464 
*END

*D_NET *110 0.000277283
*CONN
*I *2872:B1 I *D sky130_fd_sc_hd__a21o_1
*I *2871:Y O *D sky130_fd_sc_hd__o21ai_1
*CAP
1 *2872:B1 5.91518e-05
2 *2871:Y 5.91518e-05
3 *2872:B1 *2871:A1 7.83366e-05
4 *2872:B1 *198:142 8.06427e-05
*RES
1 *2871:Y *2872:B1 29.5464 
*END

*D_NET *111 0.00393494
*CONN
*I *2877:B I *D sky130_fd_sc_hd__and4_1
*I *2872:X O *D sky130_fd_sc_hd__a21o_1
*CAP
1 *2877:B 0.000675277
2 *2872:X 0.000675277
3 *2877:B *2997:S 0.000243548
4 *2877:B *3128:CLK 0.00018519
5 *2877:B *3200:A 4.88104e-05
6 *2877:B *194:51 4.06782e-05
7 *2877:B *195:29 0.000340466
8 *2877:B *195:100 0.000597394
9 *2877:B *195:115 0.00032246
10 *2877:B *275:27 0.000124157
11 *2877:B *344:37 0.000681677
*RES
1 *2872:X *2877:B 49.8321 
*END

*D_NET *112 0.000693372
*CONN
*I *2874:B1 I *D sky130_fd_sc_hd__a21o_1
*I *2873:Y O *D sky130_fd_sc_hd__o21ai_1
*CAP
1 *2874:B1 0.000165286
2 *2873:Y 0.000165286
3 *2874:B1 *2873:B1 5.45307e-05
4 *2874:B1 *2874:A1 0.000137983
5 *2874:B1 *2874:A2 0.000106517
6 *2874:B1 *424:28 2.44318e-05
7 *2874:B1 *424:41 3.93369e-05
*RES
1 *2873:Y *2874:B1 22.4393 
*END

*D_NET *113 0.000341486
*CONN
*I *2877:C I *D sky130_fd_sc_hd__and4_1
*I *2874:X O *D sky130_fd_sc_hd__a21o_1
*CAP
1 *2877:C 7.79213e-05
2 *2874:X 7.79213e-05
3 *2877:C *424:28 0.000185643
*RES
1 *2874:X *2877:C 20.3679 
*END

*D_NET *114 0.00093918
*CONN
*I *2876:B1 I *D sky130_fd_sc_hd__a21o_1
*I *2875:Y O *D sky130_fd_sc_hd__o21ai_1
*CAP
1 *2876:B1 0.000345942
2 *2875:Y 0.000345942
3 *2876:B1 *2876:A1 0.000117428
4 *2876:B1 *153:16 0
5 *2876:B1 *430:26 0.000129868
*RES
1 *2875:Y *2876:B1 33.9929 
*END

*D_NET *115 0.00182176
*CONN
*I *2877:D I *D sky130_fd_sc_hd__and4_1
*I *2876:X O *D sky130_fd_sc_hd__a21o_1
*CAP
1 *2877:D 0.000658892
2 *2876:X 0.000658892
3 *2877:D *135:12 0
4 *2877:D *153:16 0
5 *2877:D *424:28 0.000503973
*RES
1 *2876:X *2877:D 40.1179 
*END

*D_NET *116 0.003037
*CONN
*I *2887:B I *D sky130_fd_sc_hd__and3_1
*I *2877:X O *D sky130_fd_sc_hd__and4_1
*CAP
1 *2887:B 0.00110758
2 *2877:X 0.00110758
3 *2887:B *2949:B 0.000196406
4 *2887:B *2963:A0 2.58997e-05
5 *2887:B *3202:A 0
6 *2887:B *3203:A 1.92905e-05
7 *2887:B *125:22 2.51343e-06
8 *2887:B *153:16 0
9 *2887:B *199:102 0
10 *2887:B *199:148 0
11 *2887:B *338:49 0.000220448
12 *2887:B *344:37 4.53889e-05
13 *2887:B *424:28 0.000199934
14 *2887:B *429:18 0.000111963
*RES
1 *2877:X *2887:B 45.4929 
*END

*D_NET *117 0.000522839
*CONN
*I *2879:B1 I *D sky130_fd_sc_hd__a21o_1
*I *2878:Y O *D sky130_fd_sc_hd__o21ai_1
*CAP
1 *2879:B1 8.08192e-05
2 *2878:Y 8.08192e-05
3 *2879:B1 *2879:A1 1.97617e-05
4 *2879:B1 *2879:A2 7.37386e-05
5 *2879:B1 *397:14 7.25873e-06
6 *2879:B1 *429:61 0.000260442
*RES
1 *2878:Y *2879:B1 21.5107 
*END

*D_NET *118 0.00327336
*CONN
*I *2886:A I *D sky130_fd_sc_hd__and4_1
*I *2879:X O *D sky130_fd_sc_hd__a21o_1
*CAP
1 *2886:A 0.00116392
2 *2879:X 0.00116392
3 *2886:A *2960:A 1.84776e-05
4 *2886:A *2994:A 8.59734e-05
5 *2886:A *124:16 0.00018172
6 *2886:A *125:22 0.000141069
7 *2886:A *156:16 5.49544e-05
8 *2886:A *280:44 0.000173364
9 *2886:A *332:97 0
10 *2886:A *348:48 2.37944e-05
11 *2886:A *427:28 0.000266164
*RES
1 *2879:X *2886:A 46.6179 
*END

*D_NET *119 0.00204141
*CONN
*I *2881:B1 I *D sky130_fd_sc_hd__a21o_1
*I *2880:Y O *D sky130_fd_sc_hd__o21ai_1
*CAP
1 *2881:B1 0.000365693
2 *2880:Y 0.000365693
3 *2881:B1 *2880:A1 0.000195119
4 *2881:B1 *2881:A2 4.08637e-05
5 *2881:B1 *2901:A1 0.00012249
6 *2881:B1 *2901:B1 7.17807e-05
7 *2881:B1 *273:76 0
8 *2881:B1 *320:14 9.58632e-05
9 *2881:B1 *324:10 0.000673682
10 *2881:B1 *425:20 5.52238e-05
11 *2881:B1 *425:49 5.49995e-05
*RES
1 *2880:Y *2881:B1 38.0107 
*END

*D_NET *120 0.00532577
*CONN
*I *2886:B I *D sky130_fd_sc_hd__and4_1
*I *2881:X O *D sky130_fd_sc_hd__a21o_1
*CAP
1 *2886:B 0
2 *2881:X 0.00124754
3 *120:18 0.00124754
4 *120:18 *2886:C 0.000225988
5 *120:18 *2902:B1 0
6 *120:18 *2957:A0 0
7 *120:18 *2957:A1 0.00023437
8 *120:18 *2958:A 0
9 *120:18 *3138:RESET_B 0.00012401
10 *120:18 *124:16 0.000267731
11 *120:18 *139:16 7.79781e-06
12 *120:18 *163:20 7.6644e-05
13 *120:18 *184:16 5.36379e-05
14 *120:18 *273:76 0.000271478
15 *120:18 *320:14 1.04766e-05
16 *120:18 *332:97 0
17 *120:18 *402:31 0.000362268
18 *120:18 *425:49 5.03772e-05
19 *120:18 *425:73 0.000681306
20 *120:18 *426:23 0
21 *120:18 *426:38 0.000441978
22 *120:18 *426:59 2.26327e-05
23 *3138:D *120:18 0
*RES
1 *2881:X *120:18 49.1393 
2 *120:18 *2886:B 9.3 
*END

*D_NET *121 0.000615905
*CONN
*I *2883:B1 I *D sky130_fd_sc_hd__a21o_1
*I *2882:Y O *D sky130_fd_sc_hd__o21ai_1
*CAP
1 *2883:B1 0.000178141
2 *2882:Y 0.000178141
3 *2883:B1 *2882:A1 3.6337e-05
4 *2883:B1 *2883:A1 0.000146254
5 *2883:B1 *2883:A2 3.99614e-06
6 *2883:B1 *3199:A 1.28412e-05
7 *2883:B1 *426:59 6.01956e-05
*RES
1 *2882:Y *2883:B1 31.7964 
*END

*D_NET *122 0.000515672
*CONN
*I *2886:C I *D sky130_fd_sc_hd__and4_1
*I *2883:X O *D sky130_fd_sc_hd__a21o_1
*CAP
1 *2886:C 0.000133667
2 *2883:X 0.000133667
3 *2886:C *124:16 2.2351e-05
4 *120:18 *2886:C 0.000225988
*RES
1 *2883:X *2886:C 21.1893 
*END

*D_NET *123 0.00135832
*CONN
*I *2885:B1 I *D sky130_fd_sc_hd__a21o_1
*I *2884:Y O *D sky130_fd_sc_hd__o21ai_1
*CAP
1 *2885:B1 0.000332683
2 *2884:Y 0.000332683
3 *2885:B1 *2884:A1 0.00014279
4 *2885:B1 *2885:A1 1.33343e-05
5 *2885:B1 *2953:A1 8.50152e-05
6 *2885:B1 *2988:A 7.60047e-05
7 *2885:B1 *163:20 0
8 *2885:B1 *281:143 0.000177821
9 *2885:B1 *391:16 0.000197984
*RES
1 *2884:Y *2885:B1 34.6893 
*END

*D_NET *124 0.00389034
*CONN
*I *2886:D I *D sky130_fd_sc_hd__and4_1
*I *2885:X O *D sky130_fd_sc_hd__a21o_1
*CAP
1 *2886:D 0
2 *2885:X 0.000889613
3 *124:16 0.000889613
4 *124:16 *2883:A1 1.58163e-05
5 *124:16 *2883:A2 5.33005e-05
6 *124:16 *2902:B1 0.000161604
7 *124:16 *3199:A 0.000211906
8 *124:16 *156:16 0.000130467
9 *124:16 *163:20 0.000449909
10 *124:16 *273:114 4.53834e-05
11 *124:16 *426:38 0.000539209
12 *124:16 *426:59 3.17148e-05
13 *2886:A *124:16 0.00018172
14 *2886:C *124:16 2.2351e-05
15 *120:18 *124:16 0.000267731
*RES
1 *2885:X *124:16 42.5143 
2 *124:16 *2886:D 9.3 
*END

*D_NET *125 0.00504609
*CONN
*I *2887:C I *D sky130_fd_sc_hd__and3_1
*I *2886:X O *D sky130_fd_sc_hd__and4_1
*CAP
1 *2887:C 0
2 *2886:X 0.00148282
3 *125:22 0.00148282
4 *125:22 *2888:A 0.00032579
5 *125:22 *2898:A1 0.000139907
6 *125:22 *3118:CLK 5.59013e-05
7 *125:22 *3141:CLK 0.000785366
8 *125:22 *3141:RESET_B 5.37366e-05
9 *125:22 *280:10 0.000320024
10 *125:22 *280:44 0.000202842
11 *125:22 *332:97 0
12 *125:22 *405:8 5.33005e-05
13 *2886:A *125:22 0.000141069
14 *2887:B *125:22 2.51343e-06
*RES
1 *2886:X *125:22 44.9786 
2 *125:22 *2887:C 9.3 
*END

*D_NET *126 0.00179187
*CONN
*I *2888:A I *D sky130_fd_sc_hd__buf_1
*I *2887:X O *D sky130_fd_sc_hd__and3_1
*CAP
1 *2888:A 0.000575318
2 *2887:X 0.000575318
3 *2888:A *3016:A 0
4 *2888:A *3141:CLK 0.000151061
5 *2888:A *327:27 0.000132976
6 *2888:A *335:10 3.14048e-05
7 *125:22 *2888:A 0.00032579
*RES
1 *2887:X *2888:A 40.3321 
*END

*D_NET *127 0.000267013
*CONN
*I *2890:B1 I *D sky130_fd_sc_hd__a21o_1
*I *2889:Y O *D sky130_fd_sc_hd__o21ai_1
*CAP
1 *2890:B1 7.04136e-05
2 *2889:Y 7.04136e-05
3 *2890:B1 *194:108 0.000126186
*RES
1 *2889:Y *2890:B1 29.2429 
*END

*D_NET *128 0.00511084
*CONN
*I *2897:A I *D sky130_fd_sc_hd__and4_1
*I *2890:X O *D sky130_fd_sc_hd__a21o_1
*CAP
1 *2897:A 0
2 *2890:X 0.00149741
3 *128:14 0.00149741
4 *128:14 *2873:B1 6.45575e-05
5 *128:14 *2897:C 2.85321e-05
6 *128:14 *3128:RESET_B 0.000104246
7 *128:14 *194:93 0.000911554
8 *128:14 *195:100 0
9 *128:14 *195:115 0
10 *128:14 *277:17 9.62422e-05
11 *128:14 *277:30 2.07394e-05
12 *128:14 *277:40 0.000176305
13 *128:14 *343:37 8.00806e-05
14 *3121:D *128:14 7.83659e-05
15 *3123:D *128:14 7.6644e-05
16 *3128:D *128:14 8.00806e-05
17 *109:12 *128:14 0.000398669
*RES
1 *2890:X *128:14 49.5143 
2 *128:14 *2897:A 9.3 
*END

*D_NET *129 0.000285392
*CONN
*I *2892:B1 I *D sky130_fd_sc_hd__a21o_1
*I *2891:Y O *D sky130_fd_sc_hd__o21ai_1
*CAP
1 *2892:B1 0.000104261
2 *2891:Y 0.000104261
3 *2892:B1 *428:46 5.37741e-06
4 *2892:B1 *428:50 7.14923e-05
*RES
1 *2891:Y *2892:B1 29.5464 
*END

*D_NET *130 0.00187957
*CONN
*I *2897:B I *D sky130_fd_sc_hd__and4_1
*I *2892:X O *D sky130_fd_sc_hd__a21o_1
*CAP
1 *2897:B 0.000638311
2 *2892:X 0.000638311
3 *2897:B *3069:S 1.5864e-05
4 *2897:B *3128:RESET_B 1.00887e-05
5 *2897:B *3200:A 2.15245e-05
6 *2897:B *194:66 0.000192969
7 *2897:B *194:93 4.79864e-05
8 *2897:B *198:142 0.000172362
9 *2897:B *396:21 0.000142152
*RES
1 *2892:X *2897:B 40.5286 
*END

*D_NET *131 0.00192581
*CONN
*I *2894:B1 I *D sky130_fd_sc_hd__a21o_1
*I *2893:Y O *D sky130_fd_sc_hd__o21ai_1
*CAP
1 *2894:B1 0.00053355
2 *2893:Y 0.00053355
3 *2894:B1 *2893:A2 0.000147913
4 *2894:B1 *3005:A0 4.83039e-05
5 *2894:B1 *3005:A1 0.000147913
6 *2894:B1 *3006:A 0.000181796
7 *2894:B1 *3231:A 8.86413e-05
8 *2894:B1 *400:20 0.000223883
9 *2894:B1 *424:58 2.02599e-05
*RES
1 *2893:Y *2894:B1 37.225 
*END

*D_NET *132 0.000484909
*CONN
*I *2897:C I *D sky130_fd_sc_hd__and4_1
*I *2894:X O *D sky130_fd_sc_hd__a21o_1
*CAP
1 *2897:C 0.000225163
2 *2894:X 0.000225163
3 *2897:C *3128:RESET_B 6.05161e-06
4 *128:14 *2897:C 2.85321e-05
*RES
1 *2894:X *2897:C 22.0107 
*END

*D_NET *133 0.00175276
*CONN
*I *2896:B1 I *D sky130_fd_sc_hd__a21o_1
*I *2895:Y O *D sky130_fd_sc_hd__o21ai_1
*CAP
1 *2896:B1 0.000388452
2 *2895:Y 0.000388452
3 *2896:B1 *2895:A2 5.52302e-05
4 *2896:B1 *198:33 0.000527102
5 *2896:B1 *207:39 0.000111501
6 *2896:B1 *278:10 0.000100969
7 *2896:B1 *278:16 8.15939e-05
8 *2896:B1 *278:92 9.94589e-05
*RES
1 *2895:Y *2896:B1 36.9929 
*END

*D_NET *134 0.00510272
*CONN
*I *2897:D I *D sky130_fd_sc_hd__and4_1
*I *2896:X O *D sky130_fd_sc_hd__a21o_1
*CAP
1 *2897:D 0
2 *2896:X 0.00139363
3 *134:16 0.00139363
4 *134:16 *2916:A1 9.84673e-05
5 *134:16 *2916:B1 8.89203e-05
6 *134:16 *3128:RESET_B 0.000216347
7 *134:16 *3134:CLK 0.000185408
8 *134:16 *3134:RESET_B 0.000477699
9 *134:16 *135:12 0.000558272
10 *134:16 *153:16 1.55584e-05
11 *134:16 *194:82 1.39711e-05
12 *134:16 *199:42 0.000184598
13 *134:16 *275:31 0.000352381
14 *134:16 *430:26 0
15 *3191:A *134:16 0.00012384
*RES
1 *2896:X *134:16 46.7286 
2 *134:16 *2897:D 9.3 
*END

*D_NET *135 0.00385887
*CONN
*I *2907:B I *D sky130_fd_sc_hd__and3_1
*I *2897:X O *D sky130_fd_sc_hd__and4_1
*CAP
1 *2907:B 0
2 *2897:X 0.00150421
3 *135:12 0.00150421
4 *135:12 *2875:A2 0
5 *135:12 *2876:A1 0.000104974
6 *135:12 *2966:A 0
7 *135:12 *3001:A1 2.8266e-06
8 *135:12 *153:16 0
9 *135:12 *194:82 2.42931e-05
10 *135:12 *327:10 0
11 *135:12 *398:23 4.75521e-05
12 *135:12 *430:26 0.000112532
13 *2877:D *135:12 0
14 *134:16 *135:12 0.000558272
*RES
1 *2897:X *135:12 41.4964 
2 *135:12 *2907:B 9.3 
*END

*D_NET *136 0.00056119
*CONN
*I *2899:B1 I *D sky130_fd_sc_hd__a21o_1
*I *2898:Y O *D sky130_fd_sc_hd__o21ai_1
*CAP
1 *2899:B1 0.000128697
2 *2898:Y 0.000128697
3 *2899:B1 *163:24 0.000100625
4 *2899:B1 *184:16 0.000100625
5 *2899:B1 *198:33 0.000102545
6 *2899:B1 *348:48 0
*RES
1 *2898:Y *2899:B1 31.1357 
*END

*D_NET *137 0.00223749
*CONN
*I *2906:A I *D sky130_fd_sc_hd__and4_1
*I *2899:X O *D sky130_fd_sc_hd__a21o_1
*CAP
1 *2906:A 0.000613655
2 *2899:X 0.000613655
3 *2906:A *2906:C 5.49544e-05
4 *2906:A *3009:S 3.0285e-05
5 *2906:A *3118:CLK 6.24997e-05
6 *2906:A *139:16 5.68713e-05
7 *2906:A *184:16 0.000659769
8 *2906:A *348:48 2.05565e-05
9 *3118:D *2906:A 0.000125241
*RES
1 *2899:X *2906:A 38.1893 
*END

*D_NET *138 0.000732363
*CONN
*I *2901:B1 I *D sky130_fd_sc_hd__a21o_1
*I *2900:Y O *D sky130_fd_sc_hd__o21ai_1
*CAP
1 *2901:B1 0.000273518
2 *2900:Y 0.000273518
3 *2901:B1 *2900:B1 1.04182e-05
4 *2901:B1 *3137:CLK 9.58689e-05
5 *2881:B1 *2901:B1 7.17807e-05
6 *3137:D *2901:B1 7.25873e-06
*RES
1 *2900:Y *2901:B1 31.725 
*END

*D_NET *139 0.0038395
*CONN
*I *2906:B I *D sky130_fd_sc_hd__and4_1
*I *2901:X O *D sky130_fd_sc_hd__a21o_1
*CAP
1 *2906:B 0
2 *2901:X 0.000855006
3 *139:16 0.000855006
4 *139:16 *2901:A1 4.73368e-05
5 *139:16 *2906:C 0.00020838
6 *139:16 *2957:A0 5.52238e-05
7 *139:16 *2957:A1 0.000107956
8 *139:16 *2958:A 0.000187041
9 *139:16 *3009:A1 0.000369815
10 *139:16 *143:16 9.41859e-05
11 *139:16 *273:76 0.000143668
12 *139:16 *324:10 0
13 *139:16 *324:31 0
14 *139:16 *332:49 0.000123295
15 *139:16 *402:31 0.000314493
16 *139:16 *425:45 7.51411e-05
17 *139:16 *425:73 0.000338281
18 *2906:A *139:16 5.68713e-05
19 *3138:D *139:16 0
20 *120:18 *139:16 7.79781e-06
*RES
1 *2901:X *139:16 40.7643 
2 *139:16 *2906:B 9.3 
*END

*D_NET *140 0.00037703
*CONN
*I *2903:B1 I *D sky130_fd_sc_hd__a21o_1
*I *2902:Y O *D sky130_fd_sc_hd__o21ai_1
*CAP
1 *2903:B1 7.09717e-05
2 *2902:Y 7.09717e-05
3 *2903:B1 *2902:A2 1.13883e-05
4 *2903:B1 *2903:A2 3.99614e-06
5 *2903:B1 *402:31 7.72745e-05
6 *2903:B1 *426:32 8.52803e-05
7 *2903:B1 *426:38 5.71472e-05
*RES
1 *2902:Y *2903:B1 20.7964 
*END

*D_NET *141 0.0019411
*CONN
*I *2906:C I *D sky130_fd_sc_hd__and4_1
*I *2903:X O *D sky130_fd_sc_hd__a21o_1
*CAP
1 *2906:C 0.000589524
2 *2903:X 0.000589524
3 *2906:C *2958:A 0.000267537
4 *2906:C *143:16 5.19842e-06
5 *2906:C *184:16 0.000225988
6 *2906:A *2906:C 5.49544e-05
7 *3118:D *2906:C 0
8 *139:16 *2906:C 0.00020838
*RES
1 *2903:X *2906:C 37.0643 
*END

*D_NET *142 0.000844267
*CONN
*I *2905:B1 I *D sky130_fd_sc_hd__a21o_1
*I *2904:Y O *D sky130_fd_sc_hd__o21ai_1
*CAP
1 *2905:B1 0.000290964
2 *2904:Y 0.000290964
3 *2905:B1 *2905:A2 2.89016e-05
4 *2905:B1 *3003:A1 0.000133596
5 *2905:B1 *351:25 7.83659e-05
6 *2905:B1 *399:16 2.14757e-05
*RES
1 *2904:Y *2905:B1 31.9571 
*END

*D_NET *143 0.00571969
*CONN
*I *2906:D I *D sky130_fd_sc_hd__and4_1
*I *2905:X O *D sky130_fd_sc_hd__a21o_1
*CAP
1 *2906:D 0
2 *2905:X 0.00217824
3 *143:16 0.00217824
4 *143:16 *2953:A0 3.93346e-05
5 *143:16 *2955:S 5.52302e-05
6 *143:16 *3009:A1 0.000115685
7 *143:16 *3010:A 0.000561149
8 *143:16 *332:60 0.000393391
9 *2906:C *143:16 5.19842e-06
10 *3117:D *143:16 9.90367e-05
11 *139:16 *143:16 9.41859e-05
*RES
1 *2905:X *143:16 42.675 
2 *143:16 *2906:D 9.3 
*END

*D_NET *144 0.00183902
*CONN
*I *2907:C I *D sky130_fd_sc_hd__and3_1
*I *2906:X O *D sky130_fd_sc_hd__and4_1
*CAP
1 *2907:C 0.000739224
2 *2906:X 0.000739224
3 *2907:C *2908:A 0.000259616
4 *2907:C *2965:A1 0.00010096
*RES
1 *2906:X *2907:C 31.3143 
*END

*D_NET *145 0.00110621
*CONN
*I *2908:A I *D sky130_fd_sc_hd__buf_1
*I *2907:X O *D sky130_fd_sc_hd__and3_1
*CAP
1 *2908:A 0.00039568
2 *2907:X 0.00039568
3 *2908:A *336:8 5.52302e-05
4 *2907:C *2908:A 0.000259616
*RES
1 *2907:X *2908:A 26.0286 
*END

*D_NET *146 0.000733226
*CONN
*I *2910:B1 I *D sky130_fd_sc_hd__a21o_1
*I *2909:Y O *D sky130_fd_sc_hd__o21ai_1
*CAP
1 *2910:B1 0.000135362
2 *2909:Y 0.000135362
3 *2910:B1 *3027:A0 0.00018372
4 *2910:B1 *3043:A1 0.000104749
5 *2910:B1 *276:70 0
6 *2910:B1 *318:24 2.28499e-05
7 *2910:B1 *325:31 1.02504e-05
8 *2910:B1 *325:41 0.000140933
*RES
1 *2909:Y *2910:B1 31.4393 
*END

*D_NET *147 0.00249102
*CONN
*I *2917:A I *D sky130_fd_sc_hd__and4_1
*I *2910:X O *D sky130_fd_sc_hd__a21o_1
*CAP
1 *2917:A 0.000845208
2 *2910:X 0.000845208
3 *2917:A *3086:A 7.83587e-05
4 *2917:A *3176:RESET_B 0
5 *2917:A *3220:A 0
6 *2917:A *207:137 0.000713082
7 *2917:A *276:10 0
8 *2917:A *276:12 0
9 *2917:A *325:31 9.15842e-06
*RES
1 *2910:X *2917:A 45.9393 
*END

*D_NET *148 0.000822995
*CONN
*I *2912:B1 I *D sky130_fd_sc_hd__a21o_1
*I *2911:Y O *D sky130_fd_sc_hd__o21ai_1
*CAP
1 *2912:B1 0.000243143
2 *2911:Y 0.000243143
3 *2912:B1 *2911:A1 1.55885e-05
4 *2912:B1 *2911:A2 5.62995e-05
5 *2912:B1 *2937:B 0
6 *2912:B1 *207:105 9.90431e-05
7 *2912:B1 *207:118 6.42338e-05
8 *2912:B1 *428:109 0.000101545
*RES
1 *2911:Y *2912:B1 31.8321 
*END

*D_NET *149 0.00366746
*CONN
*I *2917:B I *D sky130_fd_sc_hd__and4_1
*I *2912:X O *D sky130_fd_sc_hd__a21o_1
*CAP
1 *2917:B 0
2 *2912:X 0.00113536
3 *149:12 0.00113536
4 *149:12 *2917:D 2.59355e-05
5 *149:12 *2933:B1 9.32736e-05
6 *149:12 *2937:B 0
7 *149:12 *3101:S 5.59013e-05
8 *149:12 *3239:A 3.75052e-05
9 *149:12 *166:8 0
10 *149:12 *207:118 0
11 *149:12 *273:26 0.000236909
12 *149:12 *362:24 0.00075428
13 *149:12 *424:107 0.000192941
*RES
1 *2912:X *149:12 43.1571 
2 *149:12 *2917:B 9.3 
*END

*D_NET *150 0.000328517
*CONN
*I *2914:B1 I *D sky130_fd_sc_hd__a21o_1
*I *2913:Y O *D sky130_fd_sc_hd__o21ai_1
*CAP
1 *2914:B1 6.68175e-05
2 *2913:Y 6.68175e-05
3 *2914:B1 *2914:A1 0.000139658
4 *2914:B1 *2917:C 5.52238e-05
*RES
1 *2913:Y *2914:B1 20.3857 
*END

*D_NET *151 0.000544231
*CONN
*I *2917:C I *D sky130_fd_sc_hd__and4_1
*I *2914:X O *D sky130_fd_sc_hd__a21o_1
*CAP
1 *2917:C 0.000143228
2 *2914:X 0.000143228
3 *2917:C *2913:A1 6.05161e-06
4 *2917:C *2913:B1 7.83659e-05
5 *2917:C *2914:A1 3.97677e-05
6 *2917:C *362:24 7.83659e-05
7 *2914:B1 *2917:C 5.52238e-05
*RES
1 *2914:X *2917:C 29.9929 
*END

*D_NET *152 0.00151695
*CONN
*I *2916:B1 I *D sky130_fd_sc_hd__a21o_1
*I *2915:Y O *D sky130_fd_sc_hd__o21ai_1
*CAP
1 *2916:B1 0.000400029
2 *2915:Y 0.000400029
3 *2916:B1 *2915:A2 0.000128154
4 *2916:B1 *2915:B1 5.30637e-06
5 *2916:B1 *2916:A1 4.84073e-05
6 *2916:B1 *3001:A0 8.38387e-05
7 *2916:B1 *3049:A1 1.08359e-05
8 *2916:B1 *199:42 0.000351426
9 *2916:B1 *327:10 0
10 *134:16 *2916:B1 8.89203e-05
*RES
1 *2915:Y *2916:B1 36.0464 
*END

*D_NET *153 0.00880733
*CONN
*I *2917:D I *D sky130_fd_sc_hd__and4_1
*I *2916:X O *D sky130_fd_sc_hd__a21o_1
*CAP
1 *2917:D 0.00194201
2 *2916:X 0.00131486
3 *153:16 0.00325687
4 *2917:D *2873:B1 4.48647e-05
5 *2917:D *2976:A 2.14757e-05
6 *2917:D *3124:CLK 9.41642e-05
7 *2917:D *3160:RESET_B 0.000292547
8 *2917:D *287:6 0.000174389
9 *153:16 *2907:A 0
10 *153:16 *2949:B 9.77061e-05
11 *153:16 *3124:RESET_B 9.39411e-05
12 *153:16 *3134:RESET_B 0.000191644
13 *153:16 *3202:A 8.51676e-05
14 *153:16 *172:20 0.0003405
15 *153:16 *194:82 0.000101777
16 *153:16 *199:42 1.52013e-05
17 *153:16 *199:118 0.000239712
18 *153:16 *283:8 5.52238e-05
19 *153:16 *342:24 6.57815e-05
20 *153:16 *429:18 6.87574e-05
21 *153:16 *430:26 0
22 *2876:B1 *153:16 0
23 *2877:D *153:16 0
24 *2887:B *153:16 0
25 *3124:D *2917:D 7.49387e-06
26 *3124:D *153:16 3.67142e-05
27 *3160:D *2917:D 2.27416e-05
28 *3191:A *153:16 0.000202301
29 *134:16 *153:16 1.55584e-05
30 *135:12 *153:16 0
31 *149:12 *2917:D 2.59355e-05
*RES
1 *2916:X *153:16 48.5679 
2 *153:16 *2917:D 35.7821 
*END

*D_NET *154 0.00127629
*CONN
*I *2927:B I *D sky130_fd_sc_hd__and3_1
*I *2917:X O *D sky130_fd_sc_hd__and4_1
*CAP
1 *2927:B 0.000440339
2 *2917:X 0.000440339
3 *2927:B *2913:B1 2.6949e-05
4 *2927:B *2927:A 0.000151924
5 *2927:B *2927:C 9.33978e-07
6 *2927:B *2980:A1 1.5286e-05
7 *2927:B *3243:A 4.25716e-05
8 *2927:B *166:8 9.04607e-05
9 *2927:B *207:137 0
10 *2927:B *362:24 6.74911e-05
*RES
1 *2917:X *2927:B 35.5821 
*END

*D_NET *155 0.00117547
*CONN
*I *2919:B1 I *D sky130_fd_sc_hd__a21o_1
*I *2918:Y O *D sky130_fd_sc_hd__o21ai_1
*CAP
1 *2919:B1 0.000346127
2 *2918:Y 0.000346127
3 *2919:B1 *2919:A1 7.25873e-06
4 *2919:B1 *3031:S 1.3701e-05
5 *2919:B1 *3149:CLK 0.000318101
6 *2919:B1 *198:33 0.000100823
7 *2919:B1 *203:102 1.19309e-05
8 *2919:B1 *203:125 3.14048e-05
9 *2919:B1 *413:12 0
*RES
1 *2918:Y *2919:B1 33.6179 
*END

*D_NET *156 0.00550874
*CONN
*I *2926:A I *D sky130_fd_sc_hd__and4_1
*I *2919:X O *D sky130_fd_sc_hd__a21o_1
*CAP
1 *2926:A 0.00064098
2 *2919:X 0.0011223
3 *156:16 0.00176328
4 *2926:A *2926:B 5.33334e-05
5 *2926:A *2926:C 6.62761e-05
6 *2926:A *2926:D 3.48705e-05
7 *2926:A *3199:A 8.71847e-05
8 *2926:A *163:20 0.000142856
9 *2926:A *281:10 0.000158111
10 *2926:A *281:113 2.32517e-05
11 *156:16 *2882:B1 0
12 *156:16 *2883:A2 9.41642e-05
13 *156:16 *3119:CLK 5.52302e-05
14 *156:16 *3199:A 4.22627e-05
15 *156:16 *203:125 0.000455762
16 *156:16 *332:97 0.000425354
17 *156:16 *348:70 9.53281e-05
18 *156:16 *348:77 1.62621e-05
19 *156:16 *426:59 0
20 *156:16 *427:16 4.65199e-05
21 *2886:A *156:16 5.49544e-05
22 *124:16 *156:16 0.000130467
*RES
1 *2919:X *156:16 40.4429 
2 *156:16 *2926:A 22.1571 
*END

*D_NET *157 0.000507812
*CONN
*I *2921:B1 I *D sky130_fd_sc_hd__a21o_1
*I *2920:Y O *D sky130_fd_sc_hd__o21ai_1
*CAP
1 *2921:B1 0.000137119
2 *2920:Y 0.000137119
3 *2921:B1 *2920:A1 2.09722e-05
4 *2921:B1 *2941:A2 0.000101178
5 *2921:B1 *3153:CLK 0.000100165
6 *2921:B1 *425:10 1.12578e-05
*RES
1 *2920:Y *2921:B1 30.1893 
*END

*D_NET *158 0.00532429
*CONN
*I *2926:B I *D sky130_fd_sc_hd__and4_1
*I *2921:X O *D sky130_fd_sc_hd__a21o_1
*CAP
1 *2926:B 0.000134273
2 *2921:X 0.0013069
3 *158:12 0.00144118
4 *2926:B *2926:D 0.000399841
5 *158:12 *2884:B1 0.000519278
6 *158:12 *2926:D 0
7 *158:12 *2993:S 0.000309358
8 *158:12 *3225:A 0.000249493
9 *158:12 *177:10 0
10 *158:12 *195:80 0.000209584
11 *158:12 *323:32 2.85321e-05
12 *158:12 *346:67 0
13 *158:12 *425:10 0.00067252
14 *2926:A *2926:B 5.33334e-05
*RES
1 *2921:X *158:12 49.925 
2 *158:12 *2926:B 13.1214 
*END

*D_NET *159 0.000805704
*CONN
*I *2923:B1 I *D sky130_fd_sc_hd__a21o_1
*I *2922:Y O *D sky130_fd_sc_hd__o21ai_1
*CAP
1 *2923:B1 0.000283211
2 *2922:Y 0.000283211
3 *2923:B1 *2922:A2 0
4 *2923:B1 *2923:A2 0.00010096
5 *2923:B1 *3026:A 9.90367e-05
6 *2923:B1 *3042:A 3.92854e-05
7 *2923:B1 *410:12 0
8 *2923:B1 *426:90 0
9 *2923:B1 *426:109 0
*RES
1 *2922:Y *2923:B1 32.9214 
*END

*D_NET *160 0.00177522
*CONN
*I *2926:C I *D sky130_fd_sc_hd__and4_1
*I *2923:X O *D sky130_fd_sc_hd__a21o_1
*CAP
1 *2926:C 0.00061968
2 *2923:X 0.00061968
3 *2926:C *2923:A2 0.0001871
4 *2926:C *2926:D 5.71472e-05
5 *2926:C *3025:A0 2.12647e-05
6 *2926:C *281:113 9.15842e-06
7 *2926:C *324:44 0.000194914
8 *2926:A *2926:C 6.62761e-05
*RES
1 *2923:X *2926:C 38.2607 
*END

*D_NET *161 0.00187803
*CONN
*I *2925:B1 I *D sky130_fd_sc_hd__a21o_1
*I *2924:Y O *D sky130_fd_sc_hd__o21ai_1
*CAP
1 *2925:B1 0.000419907
2 *2924:Y 0.000419907
3 *2925:B1 *3019:A0 0.000206655
4 *2925:B1 *3019:A1 0.00018077
5 *2925:B1 *3020:A 0.000144773
6 *2925:B1 *281:143 9.90367e-05
7 *2925:B1 *347:18 8.93419e-05
8 *2925:B1 *407:14 9.99853e-05
9 *2925:B1 *423:29 4.49293e-05
10 *2925:B1 *423:31 0.000101545
11 *2925:B1 *423:63 1.40306e-05
12 *3143:D *2925:B1 5.71472e-05
*RES
1 *2924:Y *2925:B1 37.6 
*END

*D_NET *162 0.00172036
*CONN
*I *2926:D I *D sky130_fd_sc_hd__and4_1
*I *2925:X O *D sky130_fd_sc_hd__a21o_1
*CAP
1 *2926:D 0.000609126
2 *2925:X 0.000609126
3 *2926:D *347:18 1.02504e-05
4 *2926:D *423:29 0
5 *2926:A *2926:D 3.48705e-05
6 *2926:B *2926:D 0.000399841
7 *2926:C *2926:D 5.71472e-05
8 *158:12 *2926:D 0
*RES
1 *2925:X *2926:D 38.6 
*END

*D_NET *163 0.0140093
*CONN
*I *2927:C I *D sky130_fd_sc_hd__and3_1
*I *2926:X O *D sky130_fd_sc_hd__and4_1
*CAP
1 *2927:C 0.00140701
2 *2926:X 0.00137395
3 *163:24 0.00353286
4 *163:20 0.00349981
5 *2927:C *2949:C 0.000535411
6 *2927:C *2975:A0 0.00010096
7 *2927:C *2975:S 4.59075e-05
8 *2927:C *3011:S 7.02611e-05
9 *2927:C *3085:S 7.77652e-05
10 *2927:C *173:10 0
11 *2927:C *202:44 0.000349809
12 *2927:C *428:27 8.00806e-05
13 *163:20 *2884:A1 0
14 *163:20 *2953:A1 0
15 *163:20 *2988:A 5.94737e-05
16 *163:20 *3159:CLK 0.000235355
17 *163:20 *177:10 0
18 *163:20 *281:113 0.000177948
19 *163:20 *281:115 0.000148911
20 *163:24 *2949:A 0.000114655
21 *163:24 *2958:A 5.28345e-05
22 *163:24 *2975:A0 0.000353182
23 *163:24 *3015:A0 5.8148e-05
24 *163:24 *3015:A1 9.90367e-05
25 *163:24 *3241:A 5.52302e-05
26 *163:24 *184:16 0.000294914
27 *163:24 *199:118 0.00010774
28 *163:24 *338:49 9.60939e-05
29 *163:24 *402:31 3.69047e-06
30 *163:24 *429:35 0.000307343
31 *2885:B1 *163:20 0
32 *2899:B1 *163:24 0.000100625
33 *2926:A *163:20 0.000142856
34 *2927:B *2927:C 9.33978e-07
35 *120:18 *163:20 7.6644e-05
36 *124:16 *163:20 0.000449909
*RES
1 *2926:X *163:20 49.55 
2 *163:20 *163:24 28.8929 
3 *163:24 *2927:C 44.3625 
*END

*D_NET *164 0.000167907
*CONN
*I *2928:A I *D sky130_fd_sc_hd__buf_1
*I *2927:X O *D sky130_fd_sc_hd__and3_1
*CAP
1 *2928:A 8.39537e-05
2 *2927:X 8.39537e-05
*RES
1 *2927:X *2928:A 19.8679 
*END

*D_NET *165 0.000930255
*CONN
*I *2930:B1 I *D sky130_fd_sc_hd__a21o_1
*I *2929:Y O *D sky130_fd_sc_hd__o21ai_1
*CAP
1 *2930:B1 0.000323645
2 *2929:Y 0.000323645
3 *2930:B1 *2929:A2 0.000127031
4 *2930:B1 *2930:A2 5.71472e-05
5 *2930:B1 *3043:A1 0
6 *2930:B1 *3209:A 5.52302e-05
7 *2930:B1 *419:17 4.35567e-05
*RES
1 *2929:Y *2930:B1 24.4929 
*END

*D_NET *166 0.00567558
*CONN
*I *2937:A I *D sky130_fd_sc_hd__and4_1
*I *2930:X O *D sky130_fd_sc_hd__a21o_1
*CAP
1 *2937:A 7.83283e-05
2 *2930:X 0.00120522
3 *166:8 0.00128354
4 *2937:A *311:8 5.49489e-05
5 *166:8 *2909:A1 0.000101222
6 *166:8 *2933:B1 9.25014e-06
7 *166:8 *2961:A1 0.000161492
8 *166:8 *2980:A1 0.000505335
9 *166:8 *2986:A 7.89362e-05
10 *166:8 *3085:A0 7.83659e-05
11 *166:8 *3101:S 1.87955e-05
12 *166:8 *3239:A 0.00012401
13 *166:8 *207:149 0
14 *166:8 *273:50 4.87541e-05
15 *166:8 *332:10 0.00109128
16 *166:8 *332:20 0.000267807
17 *166:8 *362:24 0
18 *166:8 *428:27 0.000477836
19 *2927:B *166:8 9.04607e-05
20 *149:12 *166:8 0
*RES
1 *2930:X *166:8 49.1393 
2 *166:8 *2937:A 15.175 
*END

*D_NET *167 0.000653188
*CONN
*I *2932:B1 I *D sky130_fd_sc_hd__a21o_1
*I *2931:Y O *D sky130_fd_sc_hd__o21ai_1
*CAP
1 *2932:B1 0.000248451
2 *2931:Y 0.000248451
3 *2932:B1 *2931:A1 0
4 *2932:B1 *2931:A2 6.4443e-05
5 *2932:B1 *2932:A2 5.0725e-05
6 *2932:B1 *3045:S 3.18676e-05
7 *2932:B1 *428:109 9.25014e-06
*RES
1 *2931:Y *2932:B1 31.725 
*END

*D_NET *168 0.00226952
*CONN
*I *2937:B I *D sky130_fd_sc_hd__and4_1
*I *2932:X O *D sky130_fd_sc_hd__a21o_1
*CAP
1 *2937:B 0.000655715
2 *2932:X 0.000655715
3 *2937:B *2931:A1 2.8266e-06
4 *2937:B *2933:B1 0.000192662
5 *2937:B *2937:C 0.000153047
6 *2937:B *207:105 0.00010096
7 *2937:B *207:118 0
8 *2937:B *273:26 0.000190431
9 *2937:B *428:27 0.000278411
10 *2937:B *428:29 3.97543e-05
11 *2937:B *428:109 0
12 *2912:B1 *2937:B 0
13 *149:12 *2937:B 0
*RES
1 *2932:X *2937:B 42.6357 
*END

*D_NET *169 0.000319036
*CONN
*I *2934:B1 I *D sky130_fd_sc_hd__a21o_1
*I *2933:Y O *D sky130_fd_sc_hd__o21ai_1
*CAP
1 *2934:B1 4.41503e-05
2 *2933:Y 4.41503e-05
3 *2934:B1 *2933:A2 0.000149911
4 *2934:B1 *2933:B1 1.32293e-05
5 *2934:B1 *2934:A1 7.25873e-06
6 *2934:B1 *424:90 6.03365e-05
*RES
1 *2933:Y *2934:B1 20.3857 
*END

*D_NET *170 0.000858964
*CONN
*I *2937:C I *D sky130_fd_sc_hd__and4_1
*I *2934:X O *D sky130_fd_sc_hd__a21o_1
*CAP
1 *2937:C 0.00021534
2 *2934:X 0.00021534
3 *2937:C *424:81 1.4796e-05
4 *2937:C *424:90 0.000178847
5 *2937:C *428:27 8.15939e-05
6 *2937:B *2937:C 0.000153047
*RES
1 *2934:X *2937:C 31.725 
*END

*D_NET *171 0.000950375
*CONN
*I *2936:B1 I *D sky130_fd_sc_hd__a21o_1
*I *2935:Y O *D sky130_fd_sc_hd__o21ai_1
*CAP
1 *2936:B1 0.000280008
2 *2935:Y 0.000280008
3 *2936:B1 *2936:A2 5.5782e-05
4 *2936:B1 *207:22 4.88637e-05
5 *2936:B1 *207:39 0.000223558
6 *2936:B1 *341:49 4.1331e-06
7 *2936:B1 *341:65 5.80217e-05
*RES
1 *2935:Y *2936:B1 32.5464 
*END

*D_NET *172 0.00693361
*CONN
*I *2937:D I *D sky130_fd_sc_hd__and4_1
*I *2936:X O *D sky130_fd_sc_hd__a21o_1
*CAP
1 *2937:D 0.000859193
2 *2936:X 0.00177484
3 *172:20 0.00263404
4 *2937:D *2893:A1 2.44318e-05
5 *2937:D *2893:A2 0.000361914
6 *2937:D *3006:A 5.23057e-05
7 *2937:D *3069:A0 0.000144773
8 *2937:D *3231:A 2.28598e-05
9 *2937:D *173:10 0.000182694
10 *172:20 *3034:A 0.00022918
11 *172:20 *3128:RESET_B 4.73514e-05
12 *172:20 *3134:RESET_B 0
13 *172:20 *275:35 0
14 *172:20 *275:37 0
15 *172:20 *341:65 0
16 *3128:D *172:20 5.04705e-05
17 *3134:D *172:20 0.000101178
18 *3191:A *172:20 0.000107879
19 *153:16 *172:20 0.0003405
*RES
1 *2936:X *172:20 48.925 
2 *172:20 *2937:D 24.6214 
*END

*D_NET *173 0.0058614
*CONN
*I *2947:B I *D sky130_fd_sc_hd__and3_1
*I *2937:X O *D sky130_fd_sc_hd__and4_1
*CAP
1 *2947:B 0.000170118
2 *2937:X 0.00128516
3 *173:10 0.00145528
4 *2947:B *338:24 7.35636e-05
5 *173:10 *2949:C 0.000299281
6 *173:10 *2985:A0 0.000153054
7 *173:10 *202:27 0.00108481
8 *173:10 *206:59 0.00104197
9 *173:10 *318:24 0
10 *173:10 *318:28 0
11 *173:10 *337:37 0.000115474
12 *173:10 *343:113 0
13 *173:10 *428:27 0
14 *2927:C *173:10 0
15 *2937:D *173:10 0.000182694
16 *3168:D *173:10 0
*RES
1 *2937:X *173:10 48.175 
2 *173:10 *2947:B 15.9786 
*END

*D_NET *174 0.000264069
*CONN
*I *2939:B1 I *D sky130_fd_sc_hd__a21o_1
*I *2938:Y O *D sky130_fd_sc_hd__o21ai_1
*CAP
1 *2939:B1 8.9679e-05
2 *2938:Y 8.9679e-05
3 *2939:B1 *2938:A1 5.16002e-05
4 *2939:B1 *342:71 0
5 *2939:B1 *421:14 3.31108e-05
*RES
1 *2938:Y *2939:B1 29.6714 
*END

*D_NET *175 0.00670547
*CONN
*I *2946:A I *D sky130_fd_sc_hd__and4_1
*I *2939:X O *D sky130_fd_sc_hd__a21o_1
*CAP
1 *2946:A 0.0012316
2 *2939:X 0.00144798
3 *175:12 0.00267958
4 *2946:A *2922:A2 0.000148189
5 *2946:A *2922:B1 5.86416e-05
6 *2946:A *2942:B1 9.91086e-05
7 *2946:A *2943:A1 0.000137186
8 *2946:A *2943:A2 5.71472e-05
9 *2946:A *2946:C 4.43256e-05
10 *2946:A *2946:D 1.74352e-05
11 *2946:A *3041:A1 5.24274e-05
12 *2946:A *3146:RESET_B 0.000125
13 *2946:A *3154:RESET_B 1.84523e-06
14 *2946:A *182:12 0.00014183
15 *175:12 *2882:B1 6.75007e-05
16 *175:12 *2902:B1 0.000126439
17 *175:12 *3047:A1 2.89016e-05
18 *175:12 *427:28 0.000240337
*RES
1 *2939:X *175:12 43.8893 
2 *175:12 *2946:A 37.675 
*END

*D_NET *176 0.000865799
*CONN
*I *2941:B1 I *D sky130_fd_sc_hd__a21o_1
*I *2940:Y O *D sky130_fd_sc_hd__o21ai_1
*CAP
1 *2941:B1 0.000292207
2 *2940:Y 0.000292207
3 *2941:B1 *2920:B1 0.000200983
4 *2941:B1 *3145:CLK 1.0609e-05
5 *2941:B1 *279:112 1.47872e-05
6 *2941:B1 *417:14 5.50052e-05
*RES
1 *2940:Y *2941:B1 33.1714 
*END

*D_NET *177 0.00519329
*CONN
*I *2946:B I *D sky130_fd_sc_hd__and4_1
*I *2941:X O *D sky130_fd_sc_hd__a21o_1
*CAP
1 *2946:B 0.000496831
2 *2941:X 0.00165425
3 *177:10 0.00215108
4 *2946:B *2943:A2 1.02504e-05
5 *2946:B *3041:A1 0
6 *2946:B *332:116 0
7 *177:10 *2884:A2 0.000245349
8 *177:10 *2953:A1 0
9 *177:10 *2993:S 0
10 *177:10 *195:69 0.00047615
11 *177:10 *195:80 0
12 *177:10 *281:113 0
13 *177:10 *391:16 3.53761e-05
14 *177:10 *423:69 0.00012401
15 *177:10 *425:10 0
16 *158:12 *177:10 0
17 *163:20 *177:10 0
*RES
1 *2941:X *177:10 47.2018 
2 *177:10 *2946:B 22.2732 
*END

*D_NET *178 0.00203183
*CONN
*I *2943:B1 I *D sky130_fd_sc_hd__a21o_1
*I *2942:Y O *D sky130_fd_sc_hd__o21ai_1
*CAP
1 *2943:B1 0.000578494
2 *2942:Y 0.000578494
3 *2943:B1 *2922:A2 0.000274288
4 *2943:B1 *2942:A1 5.52302e-05
5 *2943:B1 *2942:B1 3.45483e-05
6 *2943:B1 *2943:A2 0.000258011
7 *2943:B1 *2946:C 5.52302e-05
8 *2943:B1 *3041:A0 5.71472e-05
9 *2943:B1 *3041:S 9.31893e-05
10 *2943:B1 *332:116 4.71964e-05
*RES
1 *2942:Y *2943:B1 38.8321 
*END

*D_NET *179 0.000806373
*CONN
*I *2946:C I *D sky130_fd_sc_hd__and4_1
*I *2943:X O *D sky130_fd_sc_hd__a21o_1
*CAP
1 *2946:C 9.73391e-05
2 *2943:X 9.73391e-05
3 *2946:C *2943:A1 1.32552e-05
4 *2946:C *2943:A2 9.90431e-05
5 *2946:C *2946:D 0.000399841
6 *2943:B1 *2946:C 5.52302e-05
7 *2946:A *2946:C 4.43256e-05
*RES
1 *2943:X *2946:C 22.4214 
*END

*D_NET *180 0.00157798
*CONN
*I *2945:B1 I *D sky130_fd_sc_hd__a21o_1
*I *2944:Y O *D sky130_fd_sc_hd__o21ai_1
*CAP
1 *2945:B1 0.000247613
2 *2944:Y 0.000247613
3 *2945:B1 *2945:A1 9.60875e-05
4 *2945:B1 *2945:A2 0.000228558
5 *2945:B1 *3041:S 7.17136e-05
6 *2945:B1 *415:18 0.000228756
7 *2945:B1 *423:14 9.90367e-05
8 *2945:B1 *423:18 0.0003586
*RES
1 *2944:Y *2945:B1 26.9036 
*END

*D_NET *181 0.00185298
*CONN
*I *2946:D I *D sky130_fd_sc_hd__and4_1
*I *2945:X O *D sky130_fd_sc_hd__a21o_1
*CAP
1 *2946:D 0.000717851
2 *2945:X 0.000717851
3 *2946:D *3183:CLK 0
4 *2946:D *332:116 0
5 *2946:A *2946:D 1.74352e-05
6 *2946:C *2946:D 0.000399841
*RES
1 *2945:X *2946:D 36.975 
*END

*D_NET *182 0.0100879
*CONN
*I *2947:C I *D sky130_fd_sc_hd__and3_1
*I *2946:X O *D sky130_fd_sc_hd__and4_1
*CAP
1 *2947:C 0.00147273
2 *2946:X 0.00199129
3 *182:12 0.00346402
4 *2947:C *2948:A 7.17136e-05
5 *2947:C *2995:A0 0.000663744
6 *2947:C *2995:S 0.000465313
7 *2947:C *3149:CLK 0.000124228
8 *2947:C *338:24 5.1129e-05
9 *2947:C *338:49 0.000214164
10 *182:12 *2918:A1 5.17614e-05
11 *182:12 *2918:B1 3.67257e-05
12 *182:12 *2943:A1 0.000209238
13 *182:12 *3042:A 0.000233181
14 *182:12 *3146:CLK 5.33334e-05
15 *182:12 *3146:RESET_B 2.95726e-05
16 *182:12 *3149:CLK 0.000462549
17 *182:12 *410:8 0.000140933
18 *2946:A *182:12 0.00014183
19 *3149:D *2947:C 6.84283e-05
20 *3154:D *182:12 0.000141975
*RES
1 *2946:X *182:12 45.1036 
2 *182:12 *2947:C 37.6214 
*END

*D_NET *183 0.000369248
*CONN
*I *2948:A I *D sky130_fd_sc_hd__dlymetal6s2s_1
*I *2947:X O *D sky130_fd_sc_hd__and3_1
*CAP
1 *2948:A 5.29713e-05
2 *2947:X 5.29713e-05
3 *2948:A *2995:A0 5.52302e-05
4 *2948:A *338:6 0
5 *2948:A *338:24 0.000136362
6 *2947:C *2948:A 7.17136e-05
*RES
1 *2947:X *2948:A 20.7964 
*END

*D_NET *184 0.0120337
*CONN
*I *2950:A I *D sky130_fd_sc_hd__clkbuf_1
*I *2949:X O *D sky130_fd_sc_hd__or4_1
*CAP
1 *2950:A 0
2 *2949:X 0.00106532
3 *184:20 0.00237244
4 *184:16 0.00343776
5 *184:16 *2902:A2 3.57366e-05
6 *184:16 *2958:A 5.28345e-05
7 *184:16 *3009:S 0.000421479
8 *184:16 *3016:A 0.000268403
9 *184:16 *199:118 0.000769088
10 *184:16 *402:31 0.000139907
11 *184:16 *426:23 0
12 *184:20 *2904:A1 2.89114e-05
13 *184:20 *2904:B1 0.000575498
14 *184:20 *3051:A0 0.00028201
15 *184:20 *3052:A 0.000363837
16 *184:20 *3225:A 9.90431e-05
17 *184:20 *195:69 0.000140933
18 *184:20 *195:80 0.000228558
19 *184:20 *207:64 0.000227539
20 *184:20 *423:39 4.87854e-05
21 *2899:B1 *184:16 0.000100625
22 *2906:A *184:16 0.000659769
23 *2906:C *184:16 0.000225988
24 *3118:D *184:16 0.000140719
25 *120:18 *184:16 5.36379e-05
26 *163:24 *184:16 0.000294914
*RES
1 *2949:X *184:16 46.0857 
2 *184:16 *184:20 42.3393 
3 *184:20 *2950:A 9.3 
*END

*D_NET *185 0.000897501
*CONN
*I *2952:A I *D sky130_fd_sc_hd__clkbuf_1
*I *2951:X O *D sky130_fd_sc_hd__mux2_1
*CAP
1 *2952:A 0.000314929
2 *2951:X 0.000314929
3 *2952:A *2951:S 0.00013949
4 *2952:A *281:72 0.000128154
*RES
1 *2951:X *2952:A 32.6536 
*END

*D_NET *186 0.000665876
*CONN
*I *2954:A I *D sky130_fd_sc_hd__clkbuf_1
*I *2953:X O *D sky130_fd_sc_hd__mux2_1
*CAP
1 *2954:A 9.88778e-05
2 *2953:X 9.88778e-05
3 *2954:A *2955:A0 0.000186662
4 *2954:A *2956:A 2.56694e-05
5 *2954:A *320:8 0
6 *2954:A *424:28 0.000105163
7 *3116:D *2954:A 0
8 *3117:D *2954:A 0.000150625
*RES
1 *2953:X *2954:A 31.3143 
*END

*D_NET *187 0.000343732
*CONN
*I *2956:A I *D sky130_fd_sc_hd__clkbuf_1
*I *2955:X O *D sky130_fd_sc_hd__mux2_1
*CAP
1 *2956:A 0.000143097
2 *2955:X 0.000143097
3 *2956:A *2953:A0 0
4 *2956:A *2955:A0 3.18676e-05
5 *2956:A *195:69 0
6 *2956:A *320:8 0
7 *2954:A *2956:A 2.56694e-05
8 *3117:D *2956:A 0
*RES
1 *2955:X *2956:A 30.0821 
*END

*D_NET *188 0.00125414
*CONN
*I *2958:A I *D sky130_fd_sc_hd__clkbuf_1
*I *2957:X O *D sky130_fd_sc_hd__mux2_1
*CAP
1 *2958:A 0.000346946
2 *2957:X 0.000346946
3 *2958:A *3118:CLK 0
4 *2958:A *402:31 0
5 *2906:C *2958:A 0.000267537
6 *120:18 *2958:A 0
7 *139:16 *2958:A 0.000187041
8 *163:24 *2958:A 5.28345e-05
9 *184:16 *2958:A 5.28345e-05
*RES
1 *2957:X *2958:A 34.6893 
*END

*D_NET *189 0.000252787
*CONN
*I *2960:A I *D sky130_fd_sc_hd__clkbuf_1
*I *2959:X O *D sky130_fd_sc_hd__mux2_1
*CAP
1 *2960:A 6.70975e-05
2 *2959:X 6.70975e-05
3 *2960:A *427:28 0.000100115
4 *2886:A *2960:A 1.84776e-05
*RES
1 *2959:X *2960:A 20.2786 
*END

*D_NET *190 0.000614981
*CONN
*I *2962:A I *D sky130_fd_sc_hd__clkbuf_1
*I *2961:X O *D sky130_fd_sc_hd__mux2_1
*CAP
1 *2962:A 0.000158428
2 *2961:X 0.000158428
3 *2962:A *3139:CLK 0.000262388
4 *2962:A *3220:A 3.57366e-05
*RES
1 *2961:X *2962:A 22.0464 
*END

*D_NET *191 0.000344498
*CONN
*I *2964:A I *D sky130_fd_sc_hd__clkbuf_1
*I *2963:X O *D sky130_fd_sc_hd__mux2_1
*CAP
1 *2964:A 0.000102433
2 *2963:X 0.000102433
3 *2964:A *2963:A1 0.000139632
*RES
1 *2963:X *2964:A 20.6893 
*END

*D_NET *192 0.000287348
*CONN
*I *2966:A I *D sky130_fd_sc_hd__clkbuf_1
*I *2965:X O *D sky130_fd_sc_hd__mux2_1
*CAP
1 *2966:A 0.000103634
2 *2965:X 0.000103634
3 *2966:A *327:10 8.00806e-05
4 *135:12 *2966:A 0
*RES
1 *2965:X *2966:A 29.6714 
*END

*D_NET *193 0.000848727
*CONN
*I *2968:A I *D sky130_fd_sc_hd__clkbuf_4
*I *2967:X O *D sky130_fd_sc_hd__or3b_1
*CAP
1 *2968:A 0.000277068
2 *2967:X 0.000277068
3 *2968:A *2972:C 1.04232e-05
4 *2968:A *2973:A 5.71472e-05
5 *2968:A *330:16 7.75319e-05
6 *2968:A *330:18 0.000149489
*RES
1 *2967:X *2968:A 23.3857 
*END

*D_NET *194 0.0332322
*CONN
*I *3061:S I *D sky130_fd_sc_hd__mux2_1
*I *3057:S I *D sky130_fd_sc_hd__mux2_1
*I *3063:S I *D sky130_fd_sc_hd__mux2_1
*I *3059:S I *D sky130_fd_sc_hd__mux2_1
*I *3053:S I *D sky130_fd_sc_hd__mux2_1
*I *3065:S I *D sky130_fd_sc_hd__mux2_1
*I *2969:A I *D sky130_fd_sc_hd__buf_4
*I *3055:S I *D sky130_fd_sc_hd__mux2_1
*I *2968:X O *D sky130_fd_sc_hd__clkbuf_4
*CAP
1 *3061:S 0
2 *3057:S 0.00152204
3 *3063:S 2.92015e-05
4 *3059:S 0
5 *3053:S 6.10011e-05
6 *3065:S 0
7 *2969:A 0
8 *3055:S 0.000750599
9 *2968:X 0.000619509
10 *194:125 0.00273952
11 *194:108 0.0030953
12 *194:93 0.00270035
13 *194:82 0.00154293
14 *194:66 0.00253725
15 *194:51 0.000826133
16 *194:36 0.0027795
17 *194:20 0.00321254
18 *3053:S *3053:A1 5.41494e-05
19 *3055:S *3055:A0 2.44318e-05
20 *3055:S *3055:A1 5.52238e-05
21 *3057:S *3057:A0 0.00014183
22 *3057:S *3057:A1 5.52238e-05
23 *3057:S *3063:A1 0.000131439
24 *3057:S *3073:S 5.60956e-05
25 *3057:S *3096:A 0.00024714
26 *3057:S *3162:CLK 1.92905e-05
27 *3057:S *3235:A 0.000227539
28 *3057:S *198:63 1.39726e-05
29 *3057:S *198:70 8.43535e-06
30 *3057:S *280:89 2.34204e-05
31 *3057:S *289:10 8.50504e-05
32 *3057:S *300:16 7.83587e-05
33 *3057:S *319:33 0.000127031
34 *3063:S *3063:A0 1.97695e-05
35 *3063:S *3064:A 0
36 *3063:S *319:33 5.7661e-06
37 *194:20 *2891:B1 0.00038678
38 *194:20 *3061:A0 0.000199482
39 *194:20 *3172:CLK 5.45307e-05
40 *194:20 *202:106 4.70078e-05
41 *194:20 *275:47 8.30315e-05
42 *194:20 *330:16 0.000169182
43 *194:20 *390:14 8.64227e-05
44 *194:36 *2935:B1 2.38671e-05
45 *194:36 *3061:A0 1.69961e-05
46 *194:36 *3061:A1 0.000276211
47 *194:36 *3062:A 0.000315152
48 *194:36 *3164:RESET_B 4.69323e-05
49 *194:36 *3190:CLK 0
50 *194:36 *3226:A 9.93135e-05
51 *194:36 *202:106 8.95278e-05
52 *194:36 *206:146 0
53 *194:36 *328:14 0.000100576
54 *194:36 *345:106 0.000439705
55 *194:51 *2997:S 0.000113785
56 *194:51 *198:19 0.000245335
57 *194:51 *198:142 0.000931319
58 *194:51 *344:12 0
59 *194:51 *344:37 0
60 *194:66 *3069:S 0.000368294
61 *194:66 *198:142 0.000182806
62 *194:66 *199:36 1.98839e-05
63 *194:82 *3002:A 9.75679e-05
64 *194:82 *3065:A0 2.38501e-05
65 *194:82 *3065:A1 5.49995e-05
66 *194:82 *3066:A 0.00017893
67 *194:82 *3128:RESET_B 4.70821e-05
68 *194:82 *3134:RESET_B 0.000100248
69 *194:82 *195:33 0.000430789
70 *194:82 *275:27 0.000394949
71 *194:82 *398:8 2.89114e-05
72 *194:93 *2873:A1 2.6304e-05
73 *194:93 *2873:B1 8.59404e-05
74 *194:93 *3053:A1 6.61256e-05
75 *194:93 *3069:S 0.000567044
76 *194:93 *3128:RESET_B 2.97318e-05
77 *194:93 *392:27 0.000107502
78 *194:108 *2869:A1 0
79 *194:108 *2889:A2 0.000245261
80 *194:108 *2995:A1 8.00806e-05
81 *194:108 *2996:A 0
82 *194:108 *3011:A0 7.83659e-05
83 *194:108 *3011:S 0
84 *194:108 *3053:A0 0
85 *194:108 *3054:A 0
86 *194:108 *3059:A0 5.68722e-05
87 *194:108 *3059:A1 1.74352e-05
88 *194:108 *3060:A 1.24368e-05
89 *194:108 *3131:RESET_B 0.000130264
90 *194:108 *3163:RESET_B 9.59415e-05
91 *194:108 *403:19 0.000199706
92 *194:108 *427:44 0
93 *194:125 *2938:B1 0
94 *194:125 *3059:A1 0.000132004
95 *194:125 *3063:A1 5.52302e-05
96 *194:125 *3064:A 3.57366e-05
97 *194:125 *3111:A1 8.07313e-05
98 *194:125 *3165:RESET_B 0
99 *194:125 *319:33 2.95726e-05
100 *2870:B1 *194:108 0
101 *2877:B *194:51 4.06782e-05
102 *2890:B1 *194:108 0.000126186
103 *2897:B *194:66 0.000192969
104 *2897:B *194:93 4.79864e-05
105 *3162:D *3057:S 0.000106455
106 *3164:D *194:36 0
107 *3166:D *194:82 5.62995e-05
108 *3172:D *194:20 1.69175e-05
109 *3190:D *194:36 1.72894e-05
110 *128:14 *194:93 0.000911554
111 *134:16 *194:82 1.39711e-05
112 *135:12 *194:82 2.42931e-05
113 *153:16 *194:82 0.000101777
*RES
1 *2968:X *194:20 34.05 
2 *194:20 *194:36 46.75 
3 *194:36 *3055:S 26.2464 
4 *194:20 *194:51 24 
5 *194:51 *2969:A 9.3 
6 *194:51 *194:66 12.2143 
7 *194:66 *194:82 41.7143 
8 *194:82 *3065:S 9.3 
9 *194:66 *194:93 24.4643 
10 *194:93 *3053:S 10.6571 
11 *194:93 *194:108 45.7143 
12 *194:108 *3059:S 9.3 
13 *194:108 *194:125 30.1071 
14 *194:125 *3063:S 10.0321 
15 *194:125 *3057:S 43.1929 
16 *194:20 *3061:S 9.3 
*END

*D_NET *195 0.0292036
*CONN
*I *2995:S I *D sky130_fd_sc_hd__mux2_1
*I *2999:S I *D sky130_fd_sc_hd__mux2_1
*I *2970:S I *D sky130_fd_sc_hd__mux2_1
*I *2989:S I *D sky130_fd_sc_hd__mux2_1
*I *2993:S I *D sky130_fd_sc_hd__mux2_1
*I *2987:S I *D sky130_fd_sc_hd__mux2_1
*I *3051:S I *D sky130_fd_sc_hd__mux2_1
*I *2991:S I *D sky130_fd_sc_hd__mux2_1
*I *3001:S I *D sky130_fd_sc_hd__mux2_1
*I *2997:S I *D sky130_fd_sc_hd__mux2_1
*I *2969:X O *D sky130_fd_sc_hd__buf_4
*CAP
1 *2995:S 0.000394856
2 *2999:S 0.000492957
3 *2970:S 4.12615e-05
4 *2989:S 0.000293162
5 *2993:S 0.00113431
6 *2987:S 0
7 *3051:S 0
8 *2991:S 0.000143219
9 *3001:S 0
10 *2997:S 0.000600044
11 *2969:X 3.68998e-05
12 *195:126 0.00117812
13 *195:115 0.00113001
14 *195:100 0.00142156
15 *195:80 0.00138332
16 *195:69 0.00110665
17 *195:48 0.00313416
18 *195:33 0.00270422
19 *195:29 0.00106068
20 *195:8 0.000796747
21 *2970:S *2975:A1 4.88637e-05
22 *2970:S *318:55 1.24368e-05
23 *2989:S *2989:A0 9.87672e-05
24 *2989:S *2990:A 0.000139202
25 *2989:S *3069:S 0.000354941
26 *2989:S *392:27 4.34515e-05
27 *2991:S *3007:A1 9.95963e-05
28 *2993:S *348:18 0.00173466
29 *2995:S *3000:A 0
30 *2995:S *338:49 0.000870142
31 *2995:S *342:56 0.000200098
32 *2997:S *2997:A1 4.73286e-05
33 *2997:S *2998:A 0
34 *2997:S *3013:A0 0.000198916
35 *2997:S *3200:A 0.000143375
36 *2997:S *203:60 0.000269902
37 *2997:S *396:12 5.33614e-05
38 *2997:S *428:46 5.79582e-06
39 *2999:S *2999:A1 5.66971e-05
40 *2999:S *3000:A 0.000154769
41 *2999:S *429:67 0.000171633
42 *195:8 *199:36 2.59355e-05
43 *195:33 *3001:A0 9.75679e-05
44 *195:33 *3002:A 0.000139338
45 *195:48 *2900:A2 0.000201026
46 *195:48 *2901:A1 5.49995e-05
47 *195:48 *3001:A0 5.49995e-05
48 *195:48 *3001:A1 4.7201e-05
49 *195:48 *3007:A1 0.000302859
50 *195:48 *203:83 0.00037665
51 *195:48 *401:18 0.000326714
52 *195:69 *2953:A0 0
53 *195:69 *2953:A1 0.000153047
54 *195:69 *2955:S 6.42242e-05
55 *195:69 *3051:A0 5.33334e-05
56 *195:69 *203:83 1.2557e-05
57 *195:69 *346:77 0
58 *195:69 *424:14 1.31235e-05
59 *195:80 *3051:A0 0.000120587
60 *195:100 *3128:RESET_B 0
61 *195:115 *2970:A1 0
62 *195:115 *2975:A1 0
63 *195:115 *2976:A 0.00014101
64 *195:115 *3011:S 2.49484e-05
65 *195:115 *3121:RESET_B 0.000288564
66 *195:115 *3124:CLK 9.9784e-05
67 *195:115 *342:49 0.000409502
68 *195:115 *344:37 0.000172685
69 *195:126 *2970:A1 0
70 *195:126 *338:49 0
71 *195:126 *342:49 7.67045e-05
72 *195:126 *342:56 0.000182155
73 *2877:B *2997:S 0.000243548
74 *2877:B *195:29 0.000340466
75 *2877:B *195:100 0.000597394
76 *2877:B *195:115 0.00032246
77 *2947:C *2995:S 0.000465313
78 *2956:A *195:69 0
79 *3117:D *195:69 0
80 *3128:D *195:100 0
81 *109:12 *195:115 0.00012966
82 *128:14 *195:100 0
83 *128:14 *195:115 0
84 *158:12 *2993:S 0.000309358
85 *158:12 *195:80 0.000209584
86 *177:10 *2993:S 0
87 *177:10 *195:69 0.00047615
88 *177:10 *195:80 0
89 *184:20 *195:69 0.000140933
90 *184:20 *195:80 0.000228558
91 *194:51 *2997:S 0.000113785
92 *194:82 *195:33 0.000430789
*RES
1 *2969:X *195:8 14.3357 
2 *195:8 *2997:S 36.9786 
3 *195:8 *195:29 4.375 
4 *195:29 *195:33 16.125 
5 *195:33 *3001:S 9.3 
6 *195:33 *195:48 35.625 
7 *195:48 *2991:S 21.4607 
8 *195:48 *195:69 28.2321 
9 *195:69 *3051:S 9.3 
10 *195:69 *195:80 11.6607 
11 *195:80 *2987:S 13.8 
12 *195:80 *2993:S 40.1929 
13 *195:29 *195:100 7.71429 
14 *195:100 *2989:S 20.4964 
15 *195:100 *195:115 20.625 
16 *195:115 *2970:S 14.7464 
17 *195:115 *195:126 7.10714 
18 *195:126 *2999:S 24.1929 
19 *195:126 *2995:S 27.1214 
*END

*D_NET *196 0.000230163
*CONN
*I *2971:A I *D sky130_fd_sc_hd__clkbuf_1
*I *2970:X O *D sky130_fd_sc_hd__mux2_1
*CAP
1 *2971:A 7.71388e-05
2 *2970:X 7.71388e-05
3 *2971:A *318:55 6.21846e-05
4 *2971:A *343:37 1.3701e-05
*RES
1 *2970:X *2971:A 20.2786 
*END

*D_NET *197 0.000332264
*CONN
*I *2973:A I *D sky130_fd_sc_hd__buf_4
*I *2972:X O *D sky130_fd_sc_hd__and3b_1
*CAP
1 *2973:A 0.000137559
2 *2972:X 0.000137559
3 *2973:A *202:10 0
4 *2968:A *2973:A 5.71472e-05
5 *3172:D *2973:A 0
*RES
1 *2972:X *2973:A 29.7786 
*END

*D_NET *198 0.0354581
*CONN
*I *2974:A I *D sky130_fd_sc_hd__buf_4
*I *3069:S I *D sky130_fd_sc_hd__mux2_1
*I *3081:S I *D sky130_fd_sc_hd__mux2_1
*I *3071:S I *D sky130_fd_sc_hd__mux2_1
*I *3079:S I *D sky130_fd_sc_hd__mux2_1
*I *3073:S I *D sky130_fd_sc_hd__mux2_1
*I *3075:S I *D sky130_fd_sc_hd__mux2_1
*I *3077:S I *D sky130_fd_sc_hd__mux2_1
*I *2973:X O *D sky130_fd_sc_hd__buf_4
*CAP
1 *2974:A 0
2 *3069:S 0.000881622
3 *3081:S 0.00014374
4 *3071:S 0.000886729
5 *3079:S 0
6 *3073:S 0.000977832
7 *3075:S 0
8 *3077:S 0
9 *2973:X 0.000175143
10 *198:142 0.00128604
11 *198:104 0.00129753
12 *198:70 0.000995186
13 *198:63 0.00137637
14 *198:39 0.00154205
15 *198:33 0.00288697
16 *198:31 0.00273864
17 *198:29 0.00203097
18 *198:19 0.00246126
19 *198:6 0.00046807
20 *3069:S *2989:A0 0.000180547
21 *3069:S *3053:A0 5.71472e-05
22 *3069:S *322:28 0.000318101
23 *3069:S *392:27 3.0052e-05
24 *3069:S *424:49 0
25 *3071:S *3071:A0 9.60875e-05
26 *3071:S *320:25 7.83659e-05
27 *3071:S *345:28 0.000103789
28 *3071:S *345:32 4.00276e-06
29 *3071:S *345:106 7.6644e-05
30 *3073:S *3074:A 0.00010236
31 *3073:S *3079:A0 0.000577797
32 *3073:S *3080:A 0.00010047
33 *3073:S *3170:CLK 2.14658e-05
34 *3073:S *3173:CLK 1.20379e-05
35 *3073:S *3237:A 0.000115507
36 *3073:S *319:22 1.95646e-05
37 *3073:S *319:33 3.3495e-05
38 *3073:S *348:104 5.21933e-05
39 *3073:S *384:27 7.15962e-05
40 *3073:S *384:40 1.39726e-05
41 *3081:S *3082:A 1.97695e-05
42 *3081:S *278:50 0.000108422
43 *198:6 *3077:A0 2.36643e-05
44 *198:6 *3078:A 0.000143375
45 *198:6 *206:146 0.000661407
46 *198:6 *390:18 9.83442e-05
47 *198:19 *2871:B1 0.000200406
48 *198:19 *3061:A0 2.16719e-05
49 *198:19 *3077:A0 1.56e-05
50 *198:19 *206:146 0.000267102
51 *198:19 *291:10 0.000171368
52 *198:19 *390:18 0.000211103
53 *198:29 *3158:CLK 1.92905e-05
54 *198:29 *422:12 5.71472e-05
55 *198:33 *2895:A1 0.00023909
56 *198:33 *2915:B1 0
57 *198:33 *2918:B1 0
58 *198:33 *3166:RESET_B 0
59 *198:33 *203:102 0
60 *198:33 *278:16 8.23082e-05
61 *198:33 *278:20 0.000176234
62 *198:33 *278:92 5.20919e-05
63 *198:33 *278:115 0.000164641
64 *198:33 *300:16 0.00208203
65 *198:33 *328:14 0
66 *198:33 *345:38 0
67 *198:33 *345:60 0.000394705
68 *198:33 *430:102 6.93072e-05
69 *198:39 *2918:B1 0
70 *198:39 *3096:A 3.17148e-05
71 *198:39 *300:16 0.00021775
72 *198:63 *2918:B1 0
73 *198:63 *3075:A0 2.78579e-05
74 *198:63 *3096:A 0.000203059
75 *198:63 *3111:A1 0.000153398
76 *198:63 *3181:CLK 0.000258107
77 *198:63 *3181:RESET_B 6.17899e-05
78 *198:63 *3234:A 5.52238e-05
79 *198:63 *206:96 0.00130468
80 *198:63 *300:6 0.000230475
81 *198:63 *319:33 9.41642e-05
82 *198:70 *319:33 5.33005e-05
83 *198:104 *3082:A 3.18315e-05
84 *198:104 *278:50 0.000142261
85 *198:142 *2871:A1 0
86 *198:142 *2871:B1 0.000361276
87 *198:142 *199:6 0.000100165
88 *198:142 *199:36 0.000139338
89 *2872:B1 *198:142 8.06427e-05
90 *2896:B1 *198:33 0.000527102
91 *2897:B *3069:S 1.5864e-05
92 *2897:B *198:142 0.000172362
93 *2899:B1 *198:33 0.000102545
94 *2919:B1 *198:33 0.000100823
95 *2989:S *3069:S 0.000354941
96 *3057:S *3073:S 5.60956e-05
97 *3057:S *198:63 1.39726e-05
98 *3057:S *198:70 8.43535e-06
99 *3142:D *198:33 0.000195547
100 *3158:D *198:29 2.89016e-05
101 *3174:D *198:104 0.00010096
102 *3181:D *198:63 0.00044629
103 *194:51 *198:19 0.000245335
104 *194:51 *198:142 0.000931319
105 *194:66 *3069:S 0.000368294
106 *194:66 *198:142 0.000182806
107 *194:93 *3069:S 0.000567044
*RES
1 *2973:X *198:6 15.5857 
2 *198:6 *3077:S 9.3 
3 *198:6 *198:19 12.9107 
4 *198:19 *198:29 27.7857 
5 *198:29 *198:31 4.5 
6 *198:31 *198:33 64.9375 
7 *198:33 *198:39 8.04464 
8 *198:39 *198:63 41.1071 
9 *198:63 *3075:S 9.3 
10 *198:39 *198:70 0.535714 
11 *198:70 *3073:S 36.2643 
12 *198:70 *3079:S 9.3 
13 *198:29 *198:104 5.19643 
14 *198:104 *3071:S 30.8357 
15 *198:104 *3081:S 12.3357 
16 *198:19 *198:142 18.6429 
17 *198:142 *3069:S 39.7643 
18 *198:142 *2974:A 9.3 
*END

*D_NET *199 0.0293201
*CONN
*I *2975:S I *D sky130_fd_sc_hd__mux2_1
*I *3011:S I *D sky130_fd_sc_hd__mux2_1
*I *3009:S I *D sky130_fd_sc_hd__mux2_1
*I *3015:S I *D sky130_fd_sc_hd__mux2_1
*I *3003:S I *D sky130_fd_sc_hd__mux2_1
*I *3067:S I *D sky130_fd_sc_hd__mux2_1
*I *3007:S I *D sky130_fd_sc_hd__mux2_1
*I *3017:S I *D sky130_fd_sc_hd__mux2_1
*I *3005:S I *D sky130_fd_sc_hd__mux2_1
*I *3013:S I *D sky130_fd_sc_hd__mux2_1
*I *2974:X O *D sky130_fd_sc_hd__buf_4
*CAP
1 *2975:S 2.72698e-05
2 *3011:S 0.000974646
3 *3009:S 0.000935944
4 *3015:S 0
5 *3003:S 0.000266002
6 *3067:S 7.32991e-05
7 *3007:S 0
8 *3017:S 0
9 *3005:S 0.000449844
10 *3013:S 0.000238898
11 *2974:X 0
12 *199:148 0.00108905
13 *199:118 0.00153928
14 *199:102 0.00167501
15 *199:80 0.0024089
16 *199:63 0.00312116
17 *199:42 0.00251188
18 *199:36 0.00271774
19 *199:6 0.00104082
20 *199:4 0.000624963
21 *2975:S *2949:C 0.000174232
22 *2975:S *2975:A0 0.00010096
23 *3003:S *207:64 0
24 *3003:S *351:25 0.000564125
25 *3005:S *3005:A1 7.75718e-05
26 *3005:S *400:12 3.10925e-05
27 *3009:S *2949:B 2.8266e-06
28 *3009:S *3015:A0 0.000392923
29 *3009:S *3118:RESET_B 0.000213353
30 *3009:S *3141:RESET_B 0.000862841
31 *3009:S *203:102 0.00024265
32 *3009:S *332:33 0
33 *3009:S *402:16 1.00399e-05
34 *3009:S *429:35 2.14658e-05
35 *3011:S *2949:C 0.000139907
36 *3011:S *3121:RESET_B 0.000175519
37 *3011:S *3124:CLK 0.000118374
38 *3011:S *202:44 0
39 *3011:S *277:40 9.90431e-05
40 *3011:S *342:49 4.27935e-05
41 *3011:S *344:37 0.000223599
42 *3013:S *339:20 0
43 *3067:S *3067:A0 9.90431e-05
44 *199:42 *2896:A1 1.04766e-05
45 *199:42 *2896:A2 0.000117392
46 *199:63 *3129:RESET_B 0.0002008
47 *199:63 *3197:A 0.000512663
48 *199:63 *279:16 5.50768e-05
49 *199:63 *393:6 3.70077e-05
50 *199:63 *393:23 8.76551e-05
51 *199:63 *401:12 3.49044e-05
52 *199:80 *207:64 0
53 *199:80 *279:16 0
54 *199:80 *320:8 0.000154486
55 *199:80 *351:14 0.000202842
56 *199:80 *351:25 7.29667e-05
57 *199:80 *401:12 1.58559e-05
58 *199:102 *342:10 0.000101545
59 *199:102 *342:24 0.000100688
60 *199:102 *344:37 0.000847017
61 *199:118 *2949:A 0.000399841
62 *199:118 *2949:B 7.83659e-05
63 *199:118 *2949:C 4.60636e-05
64 *199:118 *2975:A0 7.49387e-06
65 *199:118 *3015:A0 0.00010096
66 *199:118 *3241:A 2.89114e-05
67 *199:118 *429:18 7.6644e-05
68 *199:148 *344:37 5.41797e-05
69 *2887:B *199:102 0
70 *2887:B *199:148 0
71 *2906:A *3009:S 3.0285e-05
72 *2916:B1 *199:42 0.000351426
73 *2927:C *2975:S 4.59075e-05
74 *2927:C *3011:S 7.02611e-05
75 *3121:D *3011:S 9.74698e-05
76 *3129:D *199:63 4.57846e-05
77 *134:16 *199:42 0.000184598
78 *153:16 *199:42 1.52013e-05
79 *153:16 *199:118 0.000239712
80 *163:24 *199:118 0.00010774
81 *184:16 *3009:S 0.000421479
82 *184:16 *199:118 0.000769088
83 *194:66 *199:36 1.98839e-05
84 *194:108 *3011:S 0
85 *195:8 *199:36 2.59355e-05
86 *195:115 *3011:S 2.49484e-05
87 *198:142 *199:6 0.000100165
88 *198:142 *199:36 0.000139338
*RES
1 *2974:X *199:4 9.3 
2 *199:4 *199:6 6.28571 
3 *199:6 *3013:S 22.3179 
4 *199:6 *3005:S 26.675 
5 *199:4 *199:36 4.64286 
6 *199:36 *199:42 23.9821 
7 *199:42 *3017:S 9.3 
8 *199:42 *199:63 26.8571 
9 *199:63 *3007:S 13.8 
10 *199:63 *199:80 36.2679 
11 *199:80 *3067:S 15.1571 
12 *199:80 *3003:S 20.9071 
13 *199:36 *199:102 27.3929 
14 *199:102 *199:118 28.375 
15 *199:118 *3015:S 9.3 
16 *199:118 *3009:S 45.8 
17 *199:102 *199:148 6.14286 
18 *199:148 *3011:S 45.6393 
19 *199:148 *2975:S 11.0679 
*END

*D_NET *200 0.0010324
*CONN
*I *2976:A I *D sky130_fd_sc_hd__clkbuf_1
*I *2975:X O *D sky130_fd_sc_hd__mux2_1
*CAP
1 *2976:A 0.000248374
2 *2975:X 0.000248374
3 *2976:A *2949:C 0.000178847
4 *2976:A *3124:CLK 0.000175932
5 *2917:D *2976:A 2.14757e-05
6 *3124:D *2976:A 7.43578e-06
7 *109:12 *2976:A 1.0946e-05
8 *195:115 *2976:A 0.00014101
*RES
1 *2975:X *2976:A 32.2607 
*END

*D_NET *201 0.000142862
*CONN
*I *2978:A I *D sky130_fd_sc_hd__buf_4
*I *2977:X O *D sky130_fd_sc_hd__and3b_1
*CAP
1 *2978:A 5.97282e-05
2 *2977:X 5.97282e-05
3 *2978:A *2977:C 2.34059e-05
*RES
1 *2977:X *2978:A 19.8679 
*END

*D_NET *202 0.0377651
*CONN
*I *3097:S I *D sky130_fd_sc_hd__mux2_1
*I *3087:S I *D sky130_fd_sc_hd__mux2_1
*I *3093:S I *D sky130_fd_sc_hd__mux2_1
*I *3089:S I *D sky130_fd_sc_hd__mux2_1
*I *3095:S I *D sky130_fd_sc_hd__mux2_1
*I *3091:S I *D sky130_fd_sc_hd__mux2_1
*I *3085:S I *D sky130_fd_sc_hd__mux2_1
*I *2979:A I *D sky130_fd_sc_hd__buf_4
*I *2978:X O *D sky130_fd_sc_hd__buf_4
*CAP
1 *3097:S 0
2 *3087:S 0
3 *3093:S 0.000204994
4 *3089:S 0.000882741
5 *3095:S 0
6 *3091:S 0.000117528
7 *3085:S 0.000185143
8 *2979:A 0
9 *2978:X 0.000464238
10 *202:126 0.00252
11 *202:106 0.00515937
12 *202:73 0.00159795
13 *202:71 0.00228045
14 *202:44 0.00338457
15 *202:27 0.00289682
16 *202:16 0.00151345
17 *202:12 0.00103494
18 *202:10 0.00342999
19 *3085:S *3085:A0 3.39053e-05
20 *3089:S *3233:A 0.000228558
21 *3089:S *3236:A 0.000230482
22 *3089:S *389:18 0.00049041
23 *3089:S *389:28 0.000915102
24 *3091:S *3091:A1 2.89114e-05
25 *3093:S *3093:A0 0.00014183
26 *3093:S *3211:A 0.000398573
27 *202:10 *2977:B 0
28 *202:10 *2983:A 0
29 *202:10 *329:21 0
30 *202:16 *206:29 0.000807497
31 *202:16 *206:40 0.000174797
32 *202:27 *3168:CLK 0
33 *202:27 *206:40 0.00120871
34 *202:27 *428:27 0
35 *202:44 *2929:A1 4.25716e-05
36 *202:44 *2929:B1 0
37 *202:44 *2949:C 0.000575092
38 *202:44 *2995:A0 8.73559e-05
39 *202:44 *2996:A 0
40 *202:44 *3011:A1 0.000298766
41 *202:44 *3012:A 0.000340773
42 *202:44 *3054:A 3.34366e-05
43 *202:44 *3091:A0 6.74911e-05
44 *202:44 *3131:CLK 4.7024e-05
45 *202:44 *3160:CLK 0
46 *202:44 *3209:A 0
47 *202:44 *3210:A 0
48 *202:44 *277:103 0.000201816
49 *202:44 *277:116 1.5942e-05
50 *202:71 *3076:A 0
51 *202:71 *3091:A0 1.76135e-05
52 *202:71 *3112:A 6.19181e-05
53 *202:71 *3165:CLK 0.000273269
54 *202:71 *3210:A 0
55 *202:71 *277:116 6.8551e-05
56 *202:71 *316:8 0.00010096
57 *202:71 *389:28 5.74499e-06
58 *202:73 *3095:A0 9.60875e-05
59 *202:73 *316:8 9.02232e-05
60 *202:73 *389:28 0.000777413
61 *202:106 *3061:A0 1.98839e-05
62 *202:106 *3097:A0 0.00010096
63 *202:106 *3098:A 6.46382e-05
64 *202:106 *3226:A 0.000659769
65 *202:126 *2880:B1 0
66 *202:126 *3071:A0 6.05161e-06
67 *202:126 *3097:A0 9.79896e-05
68 *202:126 *3098:A 0
69 *202:126 *3104:A 0.00018372
70 *202:126 *3161:CLK 0.000126792
71 *202:126 *3161:RESET_B 5.79182e-05
72 *202:126 *3224:A 9.76689e-05
73 *202:126 *206:146 2.72257e-05
74 *202:126 *206:150 0.000183726
75 *202:126 *206:181 0.000256148
76 *202:126 *296:10 5.33882e-05
77 *202:126 *324:10 0
78 *202:126 *373:14 5.7661e-06
79 *202:126 *373:16 5.63043e-05
80 *202:126 *373:20 0.000274144
81 *2927:C *3085:S 7.77652e-05
82 *2927:C *202:44 0.000349809
83 *2973:A *202:10 0
84 *3011:S *202:44 0
85 *3131:D *202:44 9.14786e-05
86 *3132:D *202:16 0
87 *3161:D *202:126 3.58616e-05
88 *3168:D *202:27 0
89 *3171:D *202:71 0
90 *3189:D *202:71 0.000183726
91 *173:10 *202:27 0.00108481
92 *194:20 *202:106 4.70078e-05
93 *194:36 *202:106 8.95278e-05
*RES
1 *2978:X *202:10 25.4071 
2 *202:10 *202:12 5.46429 
3 *202:12 *202:16 16.7679 
4 *202:16 *2979:A 13.8 
5 *202:16 *202:27 31.3393 
6 *202:27 *3085:S 12.7107 
7 *202:27 *202:44 45.5714 
8 *202:44 *3091:S 15.5679 
9 *202:44 *202:71 40.75 
10 *202:71 *202:73 16.5536 
11 *202:73 *3095:S 9.3 
12 *202:73 *3089:S 32.0143 
13 *202:12 *3093:S 14.925 
14 *202:10 *202:106 33.9464 
15 *202:106 *202:126 48.5179 
16 *202:126 *3087:S 9.3 
17 *202:106 *3097:S 9.3 
*END

*D_NET *203 0.0404977
*CONN
*I *3083:S I *D sky130_fd_sc_hd__mux2_1
*I *3019:S I *D sky130_fd_sc_hd__mux2_1
*I *3025:S I *D sky130_fd_sc_hd__mux2_1
*I *3031:S I *D sky130_fd_sc_hd__mux2_1
*I *3023:S I *D sky130_fd_sc_hd__mux2_1
*I *3033:S I *D sky130_fd_sc_hd__mux2_1
*I *3029:S I *D sky130_fd_sc_hd__mux2_1
*I *3027:S I *D sky130_fd_sc_hd__mux2_1
*I *2980:S I *D sky130_fd_sc_hd__mux2_1
*I *3021:S I *D sky130_fd_sc_hd__mux2_1
*I *2979:X O *D sky130_fd_sc_hd__buf_4
*CAP
1 *3083:S 0
2 *3019:S 0.000364266
3 *3025:S 0
4 *3031:S 0.000160917
5 *3023:S 7.30112e-05
6 *3033:S 0
7 *3029:S 0
8 *3027:S 0.00036184
9 *2980:S 9.0189e-05
10 *3021:S 0
11 *2979:X 0
12 *203:140 0.00142669
13 *203:125 0.00308858
14 *203:102 0.00405828
15 *203:83 0.00345185
16 *203:71 0.00568692
17 *203:60 0.00309678
18 *203:25 0.00113866
19 *203:14 0.00157533
20 *203:6 0.00141068
21 *203:4 0.00318188
22 *2980:S *2980:A0 2.59355e-05
23 *2980:S *2980:A1 8.25843e-06
24 *3019:S *2924:A1 4.03318e-05
25 *3019:S *3099:A1 2.37005e-05
26 *3019:S *3143:RESET_B 0
27 *3019:S *323:16 0
28 *3019:S *351:38 0.000184759
29 *3023:S *351:14 0.000124012
30 *3027:S *2980:A0 0.000283458
31 *3027:S *3120:CLK 1.3142e-05
32 *3027:S *3176:RESET_B 5.85228e-05
33 *3027:S *325:20 0.000411519
34 *3027:S *340:8 2.66235e-05
35 *3027:S *343:85 0.000938646
36 *3031:S *2919:A2 0.000272371
37 *3031:S *3031:A0 5.33005e-05
38 *203:6 *2912:A1 7.02611e-05
39 *203:6 *2912:A2 0.000404707
40 *203:6 *3029:A0 8.25996e-05
41 *203:6 *428:94 0.00019243
42 *203:14 *3021:A1 0
43 *203:14 *3029:A0 7.77652e-05
44 *203:14 *3184:CLK 0
45 *203:14 *274:10 0.00010596
46 *203:14 *274:54 9.18185e-05
47 *203:14 *274:77 0.000261174
48 *203:14 *322:10 0
49 *203:14 *340:8 0
50 *203:14 *340:22 0
51 *203:14 *408:10 4.57445e-05
52 *203:25 *2980:A0 5.66157e-05
53 *203:25 *3102:A 0
54 *203:25 *3176:RESET_B 7.26841e-05
55 *203:25 *325:20 0.000935921
56 *203:60 *3013:A0 0.000129598
57 *203:60 *3014:A 7.50473e-05
58 *203:60 *3150:CLK 0.000102197
59 *203:60 *3150:RESET_B 5.52238e-05
60 *203:60 *326:43 1.70865e-05
61 *203:60 *328:20 2.07168e-05
62 *203:60 *328:24 9.71197e-05
63 *203:60 *414:8 5.52238e-05
64 *203:60 *414:14 6.42095e-05
65 *203:71 *3018:A 5.71472e-05
66 *203:71 *278:10 4.46186e-06
67 *203:71 *278:92 0.000183262
68 *203:71 *278:115 3.48742e-05
69 *203:71 *328:20 0.000308538
70 *203:71 *336:10 0.000262331
71 *203:71 *430:102 7.74068e-05
72 *203:83 *2900:A2 0.000210886
73 *203:83 *3007:A1 0.00020072
74 *203:83 *3008:A 3.10353e-05
75 *203:83 *401:18 0.000100838
76 *203:102 *2898:A1 0.000144038
77 *203:102 *2898:A2 2.26327e-05
78 *203:102 *2949:B 6.45111e-05
79 *203:102 *3141:RESET_B 4.038e-06
80 *203:102 *332:33 0
81 *203:102 *336:10 0.000525878
82 *203:102 *405:12 1.08359e-05
83 *203:102 *413:12 0
84 *203:102 *427:28 0
85 *203:102 *429:55 0
86 *203:102 *430:102 0.000648446
87 *203:125 *2919:A1 3.01245e-06
88 *203:125 *2919:A2 3.30352e-05
89 *203:125 *2923:A2 2.24763e-05
90 *203:125 *3025:A0 3.67257e-05
91 *203:125 *3026:A 0.000347077
92 *203:125 *427:16 5.70853e-05
93 *203:140 *3100:A 2.89016e-05
94 *203:140 *348:18 0.000479275
95 *203:140 *423:29 0.000390484
96 *2919:B1 *3031:S 1.3701e-05
97 *2919:B1 *203:102 1.19309e-05
98 *2919:B1 *203:125 3.14048e-05
99 *2997:S *203:60 0.000269902
100 *3009:S *203:102 0.00024265
101 *3146:D *203:125 5.71472e-05
102 *3152:D *203:14 9.14676e-05
103 *156:16 *203:125 0.000455762
104 *195:48 *203:83 0.00037665
105 *195:69 *203:83 1.2557e-05
106 *198:33 *203:102 0
*RES
1 *2979:X *203:4 9.3 
2 *203:4 *203:6 11.2143 
3 *203:6 *203:14 28.4107 
4 *203:14 *3021:S 9.3 
5 *203:14 *203:25 20.7857 
6 *203:25 *2980:S 15.175 
7 *203:25 *3027:S 28.1929 
8 *203:6 *3029:S 9.3 
9 *203:4 *203:60 35.1071 
10 *203:60 *3033:S 9.3 
11 *203:60 *203:71 16.875 
12 *203:71 *203:83 47.2143 
13 *203:83 *3023:S 19.9429 
14 *203:71 *203:102 43.2321 
15 *203:102 *3031:S 13.0321 
16 *203:102 *203:125 28.375 
17 *203:125 *3025:S 9.3 
18 *203:125 *203:140 29.8393 
19 *203:140 *3019:S 26.0143 
20 *203:140 *3083:S 9.3 
*END

*D_NET *204 0.000238001
*CONN
*I *2981:A I *D sky130_fd_sc_hd__clkbuf_1
*I *2980:X O *D sky130_fd_sc_hd__mux2_1
*CAP
1 *2981:A 0.000119
2 *2980:X 0.000119
*RES
1 *2980:X *2981:A 20.6893 
*END

*D_NET *205 0.000760099
*CONN
*I *2983:A I *D sky130_fd_sc_hd__buf_4
*I *2982:X O *D sky130_fd_sc_hd__and3_1
*CAP
1 *2983:A 0.000264064
2 *2982:X 0.000264064
3 *2983:A *2982:C 5.52302e-05
4 *2983:A *206:8 0.000102207
5 *2983:A *330:20 4.88637e-05
6 *3188:D *2983:A 2.56694e-05
7 *202:10 *2983:A 0
*RES
1 *2982:X *2983:A 32.3679 
*END

*D_NET *206 0.0418805
*CONN
*I *3103:S I *D sky130_fd_sc_hd__mux2_1
*I *3113:S I *D sky130_fd_sc_hd__mux2_1
*I *3111:S I *D sky130_fd_sc_hd__mux2_1
*I *3105:S I *D sky130_fd_sc_hd__mux2_1
*I *3107:S I *D sky130_fd_sc_hd__mux2_1
*I *3101:S I *D sky130_fd_sc_hd__mux2_1
*I *2984:A I *D sky130_fd_sc_hd__buf_4
*I *3109:S I *D sky130_fd_sc_hd__mux2_1
*I *2983:X O *D sky130_fd_sc_hd__buf_4
*CAP
1 *3103:S 0
2 *3113:S 0
3 *3111:S 0
4 *3105:S 0.000289586
5 *3107:S 2.76557e-05
6 *3101:S 0.000298825
7 *2984:A 0
8 *3109:S 0.00013782
9 *2983:X 2.23854e-05
10 *206:181 0.00188099
11 *206:150 0.00193232
12 *206:146 0.00189311
13 *206:108 0.0022636
14 *206:104 0.00217663
15 *206:96 0.00128163
16 *206:61 0.00110667
17 *206:59 0.00225206
18 *206:57 0.0023846
19 *206:40 0.000944098
20 *206:29 0.00101983
21 *206:8 0.000753915
22 *206:6 0.00197316
23 *3101:S *362:33 0.000397079
24 *3105:S *3089:A1 7.83659e-05
25 *3105:S *3105:A1 0.000247771
26 *3105:S *3178:RESET_B 0.00020212
27 *3105:S *3233:A 0
28 *3107:S *3107:A0 2.89016e-05
29 *3109:S *3109:A0 0.000111242
30 *3109:S *3109:A1 0.000140693
31 *3109:S *3213:A 0.000230482
32 *3109:S *390:26 0.000283474
33 *206:8 *3110:A 8.99523e-05
34 *206:8 *3213:A 0.000131439
35 *206:8 *390:26 0.000624797
36 *206:29 *2931:A1 8.81343e-05
37 *206:29 *2931:B1 0
38 *206:40 *2931:A1 1.46624e-05
39 *206:40 *273:26 0.00013725
40 *206:40 *428:27 0.000423789
41 *206:40 *428:29 4.25809e-05
42 *206:57 *362:33 0.000168334
43 *206:59 *2929:B1 0
44 *206:59 *2949:C 0.000297566
45 *206:59 *2985:A0 7.07908e-05
46 *206:59 *2995:A0 0
47 *206:59 *3011:A1 0
48 *206:59 *3160:CLK 0
49 *206:59 *3187:RESET_B 0
50 *206:59 *3209:A 7.73758e-05
51 *206:59 *3210:A 0
52 *206:59 *337:37 0.000125724
53 *206:59 *343:120 0
54 *206:59 *427:78 0
55 *206:59 *427:96 0
56 *206:59 *428:16 0.000127446
57 *206:96 *3059:A0 8.07951e-05
58 *206:96 *3075:A0 5.49544e-05
59 *206:96 *3076:A 0
60 *206:96 *3107:A0 2.28598e-05
61 *206:96 *3107:A1 0.000340315
62 *206:96 *3111:A0 1.02821e-05
63 *206:96 *3111:A1 5.33005e-05
64 *206:96 *3210:A 9.90431e-05
65 *206:96 *3234:A 5.52238e-05
66 *206:96 *277:123 0.000286759
67 *206:96 *298:10 0
68 *206:96 *344:49 0.000539088
69 *206:96 *389:32 0.000184926
70 *206:104 *2938:B1 3.47468e-05
71 *206:104 *3112:A 0
72 *206:104 *3227:A 2.28428e-05
73 *206:104 *344:49 0.000135242
74 *206:108 *3227:A 0.000318107
75 *206:108 *3232:A 0.000274294
76 *206:108 *319:12 0.00249671
77 *206:146 *2915:B1 0.000127446
78 *206:146 *3077:A0 7.66256e-05
79 *206:146 *3097:A0 0.000176588
80 *206:146 *3114:A 6.05091e-05
81 *206:146 *3164:CLK 4.87953e-05
82 *206:146 *3164:RESET_B 0.000255773
83 *206:146 *3190:CLK 5.52302e-05
84 *206:146 *3228:A 4.38604e-05
85 *206:146 *278:28 0.000280409
86 *206:146 *291:10 0.00014183
87 *206:146 *390:26 0.00101068
88 *206:150 *3113:A0 6.87574e-05
89 *206:150 *3228:A 1.02936e-05
90 *206:181 *3056:A 7.43578e-06
91 *206:181 *3072:A 0.000169431
92 *206:181 *3081:A0 0
93 *206:181 *3104:A 3.67142e-05
94 *206:181 *3113:A0 0.00010096
95 *206:181 *3161:CLK 0.00011898
96 *206:181 *3161:RESET_B 0
97 *206:181 *3169:CLK 5.45307e-05
98 *206:181 *3169:RESET_B 2.81497e-05
99 *206:181 *3205:A 1.92789e-05
100 *206:181 *3228:A 0.00017779
101 *206:181 *279:88 0
102 *206:181 *296:10 5.62995e-05
103 *206:181 *304:10 6.42338e-05
104 *206:181 *345:8 0.00019697
105 *206:181 *345:16 7.77751e-05
106 *206:181 *345:28 1.37051e-05
107 *206:181 *345:106 0
108 *2983:A *206:8 0.000102207
109 *3139:D *206:59 0
110 *3165:D *206:104 0.000170661
111 *3169:D *206:181 4.52931e-05
112 *3182:D *206:146 0.00014183
113 *3185:D *206:181 4.8035e-05
114 *3189:D *206:104 0
115 *3190:D *206:146 9.71197e-05
116 *149:12 *3101:S 5.59013e-05
117 *166:8 *3101:S 1.87955e-05
118 *173:10 *206:59 0.00104197
119 *194:36 *206:146 0
120 *198:6 *206:146 0.000661407
121 *198:19 *206:146 0.000267102
122 *198:63 *206:96 0.00130468
123 *202:16 *206:29 0.000807497
124 *202:16 *206:40 0.000174797
125 *202:27 *206:40 0.00120871
126 *202:126 *206:146 2.72257e-05
127 *202:126 *206:150 0.000183726
128 *202:126 *206:181 0.000256148
*RES
1 *2983:X *206:6 9.72857 
2 *206:6 *206:8 5.875 
3 *206:8 *3109:S 14.8179 
4 *206:8 *206:29 17.125 
5 *206:29 *2984:A 13.8 
6 *206:29 *206:40 22.2321 
7 *206:40 *3101:S 22.8536 
8 *206:40 *206:57 6.26786 
9 *206:57 *206:59 48.0893 
10 *206:59 *206:61 4.5 
11 *206:61 *3107:S 9.83571 
12 *206:61 *206:96 38.8929 
13 *206:96 *206:104 13.8036 
14 *206:104 *206:108 43.2321 
15 *206:108 *3105:S 20.6036 
16 *206:96 *3111:S 9.3 
17 *206:6 *206:146 49.3036 
18 *206:146 *206:150 2.19643 
19 *206:150 *3113:S 9.3 
20 *206:150 *206:181 46.3036 
21 *206:181 *3103:S 13.8 
*END

*D_NET *207 0.043768
*CONN
*I *2985:S I *D sky130_fd_sc_hd__mux2_1
*I *3047:S I *D sky130_fd_sc_hd__mux2_1
*I *3043:S I *D sky130_fd_sc_hd__mux2_1
*I *3037:S I *D sky130_fd_sc_hd__mux2_1
*I *3045:S I *D sky130_fd_sc_hd__mux2_1
*I *3041:S I *D sky130_fd_sc_hd__mux2_1
*I *3035:S I *D sky130_fd_sc_hd__mux2_1
*I *3099:S I *D sky130_fd_sc_hd__mux2_1
*I *3039:S I *D sky130_fd_sc_hd__mux2_1
*I *3049:S I *D sky130_fd_sc_hd__mux2_1
*I *2984:X O *D sky130_fd_sc_hd__buf_4
*CAP
1 *2985:S 0.000359792
2 *3047:S 0.00199679
3 *3043:S 0
4 *3037:S 4.58631e-05
5 *3045:S 0.000191604
6 *3041:S 0.00078239
7 *3035:S 0
8 *3099:S 6.67701e-05
9 *3039:S 1.03666e-05
10 *3049:S 0
11 *2984:X 0
12 *207:149 0.00225476
13 *207:137 0.0018852
14 *207:118 0.00219187
15 *207:105 0.00144386
16 *207:77 0.000983548
17 *207:66 0.000674751
18 *207:64 0.0017671
19 *207:45 0.00203735
20 *207:39 0.00215235
21 *207:22 0.00331623
22 *207:4 0.00220427
23 *2985:S *2985:A0 1.56e-05
24 *2985:S *318:24 0.000374704
25 *2985:S *325:41 3.99614e-06
26 *3037:S *3102:A 0.000105163
27 *3037:S *322:28 0.000230475
28 *3041:S *2943:A2 0.000186662
29 *3041:S *2945:A2 0.000196951
30 *3041:S *3036:A 5.62995e-05
31 *3041:S *321:10 4.56437e-05
32 *3041:S *415:18 0.000129901
33 *3041:S *423:14 0
34 *3045:S *2911:B1 0
35 *3045:S *2931:A2 0.00010096
36 *3045:S *2932:A2 0.00020042
37 *3045:S *339:38 0
38 *3045:S *339:54 4.79842e-05
39 *3045:S *420:8 5.52238e-05
40 *3045:S *420:21 9.90431e-05
41 *3045:S *428:109 7.79781e-06
42 *3047:S *2870:A1 1.15172e-05
43 *3047:S *2909:B1 0
44 *3047:S *2929:A2 0.00048939
45 *3047:S *2995:A1 4.49517e-05
46 *3047:S *3047:A0 4.01768e-05
47 *3047:S *3048:A 3.88751e-05
48 *3047:S *3131:CLK 9.3111e-05
49 *3047:S *332:10 0
50 *3047:S *395:6 1.40415e-05
51 *3047:S *419:17 0.000396898
52 *3047:S *427:28 5.1908e-05
53 *3047:S *427:32 2.94004e-05
54 *3099:S *3099:A0 0.00010096
55 *207:22 *2998:A 0.00017216
56 *207:22 *3049:A0 0.00010096
57 *207:22 *3132:RESET_B 0.0017117
58 *207:22 *3140:RESET_B 0.000202828
59 *207:22 *3200:A 5.52302e-05
60 *207:22 *339:8 5.52238e-05
61 *207:22 *339:20 9.25014e-06
62 *207:22 *428:42 7.54972e-05
63 *207:39 *2895:A1 5.52302e-05
64 *207:39 *2895:A2 7.22263e-05
65 *207:39 *2895:B1 0.000660181
66 *207:39 *2940:B1 9.90367e-05
67 *207:39 *3049:A0 2.74192e-05
68 *207:39 *3103:A0 0.000236824
69 *207:39 *3132:RESET_B 0
70 *207:39 *3219:A 0.000215102
71 *207:39 *3240:A 0.00012972
72 *207:39 *333:8 0.00153015
73 *207:39 *333:18 0.00238275
74 *207:39 *422:21 0.000136958
75 *207:45 *3024:A 3.11713e-05
76 *207:45 *3039:A0 6.67257e-05
77 *207:45 *346:41 0
78 *207:45 *346:67 0
79 *207:45 *351:14 0
80 *207:45 *417:14 0.000126871
81 *207:64 *2904:A2 1.00375e-05
82 *207:64 *2905:A1 0.000148189
83 *207:64 *3003:A1 0
84 *207:64 *3068:A 6.99989e-05
85 *207:64 *3135:CLK 3.92854e-05
86 *207:64 *346:67 0
87 *207:64 *351:14 0
88 *207:64 *351:25 0
89 *207:64 *423:39 5.7616e-05
90 *207:66 *3003:A1 0.000320738
91 *207:66 *3099:A1 0.000378051
92 *207:66 *321:12 0.00090862
93 *207:66 *321:14 0.00027338
94 *207:66 *351:38 0.00103646
95 *207:77 *321:10 1.02504e-05
96 *207:77 *321:12 0.000381318
97 *207:77 *423:14 0
98 *207:105 *2911:A1 4.13595e-05
99 *207:105 *2998:A 0
100 *207:105 *428:42 0.000268403
101 *207:105 *428:109 5.52238e-05
102 *207:118 *3037:A0 0
103 *207:118 *339:38 0
104 *207:118 *339:91 0
105 *207:118 *424:107 0.000198729
106 *207:118 *428:109 6.8646e-06
107 *207:137 *2913:B1 0.00044756
108 *207:137 *2927:A 0
109 *207:137 *2961:A1 0
110 *207:137 *2980:A1 0
111 *207:137 *3043:A1 1.88048e-05
112 *207:137 *3086:A 8.00806e-05
113 *207:137 *3102:A 0
114 *207:137 *3243:A 0.000116474
115 *207:137 *318:24 9.60939e-05
116 *207:137 *325:31 2.03942e-05
117 *207:137 *424:107 0.000298269
118 *207:149 *2909:A1 8.51662e-05
119 *207:149 *2909:B1 0
120 *207:149 *3043:A1 4.89147e-05
121 *207:149 *332:10 0
122 *207:149 *411:23 7.6644e-05
123 *2870:B1 *3047:S 5.49544e-05
124 *2896:B1 *207:39 0.000111501
125 *2912:B1 *207:105 9.90431e-05
126 *2912:B1 *207:118 6.42338e-05
127 *2917:A *207:137 0.000713082
128 *2927:B *207:137 0
129 *2932:B1 *3045:S 3.18676e-05
130 *2936:B1 *207:22 4.88637e-05
131 *2936:B1 *207:39 0.000223558
132 *2937:B *207:105 0.00010096
133 *2937:B *207:118 0
134 *2943:B1 *3041:S 9.31893e-05
135 *2945:B1 *3041:S 7.17136e-05
136 *3003:S *207:64 0
137 *3120:D *207:137 0.00019384
138 *3126:D *207:137 0.000191859
139 *3126:D *207:149 0.000120329
140 *3157:D *3047:S 0.00010096
141 *3184:D *207:118 0
142 *3184:D *207:137 0
143 *109:12 *3047:S 0.000141486
144 *149:12 *207:118 0
145 *166:8 *207:149 0
146 *184:20 *207:64 0.000227539
147 *199:80 *207:64 0
*RES
1 *2984:X *207:4 9.3 
2 *207:4 *207:22 43.3929 
3 *207:22 *3049:S 9.3 
4 *207:22 *207:39 46.4286 
5 *207:39 *207:45 15.7411 
6 *207:45 *3039:S 14.0768 
7 *207:45 *207:64 32.1339 
8 *207:64 *207:66 18.9464 
9 *207:66 *3099:S 15.1571 
10 *207:66 *207:77 4.98214 
11 *207:77 *3035:S 13.8 
12 *207:77 *3041:S 29.0679 
13 *207:4 *207:105 12.3393 
14 *207:105 *3045:S 18.8357 
15 *207:105 *207:118 16.8214 
16 *207:118 *3037:S 15.9786 
17 *207:118 *207:137 35.9821 
18 *207:137 *207:149 10.1964 
19 *207:149 *3043:S 13.8 
20 *207:149 *3047:S 42.7821 
21 *207:137 *2985:S 14.2643 
*END

*D_NET *208 0.000346705
*CONN
*I *2986:A I *D sky130_fd_sc_hd__clkbuf_1
*I *2985:X O *D sky130_fd_sc_hd__mux2_1
*CAP
1 *2986:A 0.000112952
2 *2985:X 0.000112952
3 *2986:A *2909:A1 4.27842e-06
4 *2986:A *2961:A1 3.75868e-05
5 *166:8 *2986:A 7.89362e-05
*RES
1 *2985:X *2986:A 29.9036 
*END

*D_NET *209 0.00123294
*CONN
*I *2988:A I *D sky130_fd_sc_hd__clkbuf_1
*I *2987:X O *D sky130_fd_sc_hd__mux2_1
*CAP
1 *2988:A 0.000451824
2 *2987:X 0.000451824
3 *2988:A *2953:A1 4.58194e-05
4 *2988:A *3127:CLK 5.33005e-05
5 *2988:A *423:69 2.59355e-05
6 *2885:B1 *2988:A 7.60047e-05
7 *3127:D *2988:A 6.87574e-05
8 *163:20 *2988:A 5.94737e-05
*RES
1 *2987:X *2988:A 35.0464 
*END

*D_NET *210 0.00034692
*CONN
*I *2990:A I *D sky130_fd_sc_hd__clkbuf_1
*I *2989:X O *D sky130_fd_sc_hd__mux2_1
*CAP
1 *2990:A 0.000103859
2 *2989:X 0.000103859
3 *2989:S *2990:A 0.000139202
*RES
1 *2989:X *2990:A 20.6893 
*END

*D_NET *211 0.000281993
*CONN
*I *2992:A I *D sky130_fd_sc_hd__clkbuf_1
*I *2991:X O *D sky130_fd_sc_hd__mux2_1
*CAP
1 *2992:A 6.4713e-05
2 *2991:X 6.4713e-05
3 *2992:A *2991:A1 9.75679e-05
4 *2992:A *346:77 5.49995e-05
*RES
1 *2991:X *2992:A 20.2786 
*END

*D_NET *212 0.00117865
*CONN
*I *2994:A I *D sky130_fd_sc_hd__clkbuf_1
*I *2993:X O *D sky130_fd_sc_hd__mux2_1
*CAP
1 *2994:A 0.000477865
2 *2993:X 0.000477865
3 *2994:A *3130:RESET_B 2.72654e-05
4 *2994:A *332:97 1.9774e-05
5 *2994:A *348:18 8.57818e-05
6 *2994:A *348:48 4.12423e-06
7 *2886:A *2994:A 8.59734e-05
*RES
1 *2993:X *2994:A 34.1357 
*END

*D_NET *213 0.000873146
*CONN
*I *2996:A I *D sky130_fd_sc_hd__clkbuf_1
*I *2995:X O *D sky130_fd_sc_hd__mux2_1
*CAP
1 *2996:A 0.000234922
2 *2995:X 0.000234922
3 *2996:A *3131:CLK 0
4 *2996:A *3131:RESET_B 0.000247771
5 *2996:A *277:90 7.77652e-05
6 *2996:A *427:72 7.77652e-05
7 *3131:D *2996:A 0
8 *194:108 *2996:A 0
9 *202:44 *2996:A 0
*RES
1 *2995:X *2996:A 33.3321 
*END

*D_NET *214 0.00122563
*CONN
*I *2998:A I *D sky130_fd_sc_hd__clkbuf_1
*I *2997:X O *D sky130_fd_sc_hd__mux2_1
*CAP
1 *2998:A 0.000209444
2 *2997:X 0.000209444
3 *2998:A *2997:A0 9.25014e-06
4 *2998:A *3013:A0 0
5 *2998:A *3200:A 5.03772e-05
6 *2998:A *339:20 4.66203e-05
7 *2998:A *428:42 0.000528337
8 *2997:S *2998:A 0
9 *207:22 *2998:A 0.00017216
10 *207:105 *2998:A 0
*RES
1 *2997:X *2998:A 34.4214 
*END

*D_NET *215 0.00106102
*CONN
*I *3000:A I *D sky130_fd_sc_hd__clkbuf_1
*I *2999:X O *D sky130_fd_sc_hd__mux2_1
*CAP
1 *3000:A 0.000389582
2 *2999:X 0.000389582
3 *3000:A *338:49 0.000127087
4 *2995:S *3000:A 0
5 *2999:S *3000:A 0.000154769
*RES
1 *2999:X *3000:A 33.475 
*END

*D_NET *216 0.000389804
*CONN
*I *3002:A I *D sky130_fd_sc_hd__clkbuf_1
*I *3001:X O *D sky130_fd_sc_hd__mux2_1
*CAP
1 *3002:A 7.64489e-05
2 *3001:X 7.64489e-05
3 *194:82 *3002:A 9.75679e-05
4 *195:33 *3002:A 0.000139338
*RES
1 *3001:X *3002:A 20.6893 
*END

*D_NET *217 0.000286549
*CONN
*I *3004:A I *D sky130_fd_sc_hd__clkbuf_1
*I *3003:X O *D sky130_fd_sc_hd__mux2_1
*CAP
1 *3004:A 0.000114839
2 *3003:X 0.000114839
3 *3135:D *3004:A 5.68713e-05
*RES
1 *3003:X *3004:A 20.8143 
*END

*D_NET *218 0.00108409
*CONN
*I *3006:A I *D sky130_fd_sc_hd__clkbuf_1
*I *3005:X O *D sky130_fd_sc_hd__mux2_1
*CAP
1 *3006:A 0.00022429
2 *3005:X 0.00022429
3 *3006:A *2893:A1 0.000112738
4 *3006:A *2893:A2 4.79487e-05
5 *3006:A *2893:B1 9.90367e-05
6 *3006:A *3231:A 4.08637e-05
7 *3006:A *295:10 0.000100823
8 *2894:B1 *3006:A 0.000181796
9 *2937:D *3006:A 5.23057e-05
*RES
1 *3005:X *3006:A 33.4929 
*END

*D_NET *219 0.00018748
*CONN
*I *3008:A I *D sky130_fd_sc_hd__clkbuf_1
*I *3007:X O *D sky130_fd_sc_hd__mux2_1
*CAP
1 *3008:A 4.79909e-05
2 *3007:X 4.79909e-05
3 *3008:A *401:18 6.04633e-05
4 *203:83 *3008:A 3.10353e-05
*RES
1 *3007:X *3008:A 19.8679 
*END

*D_NET *220 0.00130113
*CONN
*I *3010:A I *D sky130_fd_sc_hd__clkbuf_1
*I *3009:X O *D sky130_fd_sc_hd__mux2_1
*CAP
1 *3010:A 0.000184327
2 *3009:X 0.000184327
3 *3010:A *2957:A0 5.74499e-06
4 *3010:A *2957:A1 1.98839e-05
5 *3010:A *3009:A1 0.000267269
6 *3010:A *332:60 7.84241e-05
7 *143:16 *3010:A 0.000561149
*RES
1 *3009:X *3010:A 24.7964 
*END

*D_NET *221 0.00094933
*CONN
*I *3012:A I *D sky130_fd_sc_hd__clkbuf_1
*I *3011:X O *D sky130_fd_sc_hd__mux2_1
*CAP
1 *3012:A 0.000250013
2 *3011:X 0.000250013
3 *3012:A *2889:A2 0
4 *3012:A *3011:A1 5.52302e-05
5 *3012:A *277:17 5.33005e-05
6 *3012:A *403:19 0
7 *202:44 *3012:A 0.000340773
*RES
1 *3011:X *3012:A 33.0464 
*END

*D_NET *222 0.000397282
*CONN
*I *3014:A I *D sky130_fd_sc_hd__clkbuf_1
*I *3013:X O *D sky130_fd_sc_hd__mux2_1
*CAP
1 *3014:A 6.68246e-05
2 *3013:X 6.68246e-05
3 *3014:A *326:43 0.000188586
4 *203:60 *3014:A 7.50473e-05
*RES
1 *3013:X *3014:A 21.1 
*END

*D_NET *223 0.00144538
*CONN
*I *3016:A I *D sky130_fd_sc_hd__clkbuf_1
*I *3015:X O *D sky130_fd_sc_hd__mux2_1
*CAP
1 *3016:A 0.000498554
2 *3015:X 0.000498554
3 *3016:A *2887:A 0.000133787
4 *3016:A *2949:A 3.69697e-05
5 *3016:A *3202:A 0
6 *3016:A *3241:A 9.11365e-06
7 *2888:A *3016:A 0
8 *3141:D *3016:A 0
9 *184:16 *3016:A 0.000268403
*RES
1 *3015:X *3016:A 36.0821 
*END

*D_NET *224 0.00131865
*CONN
*I *3018:A I *D sky130_fd_sc_hd__clkbuf_1
*I *3017:X O *D sky130_fd_sc_hd__mux2_1
*CAP
1 *3018:A 0.000143216
2 *3017:X 0.000143216
3 *3018:A *2895:A1 0.000149365
4 *3018:A *3166:RESET_B 0.000149365
5 *3018:A *278:8 0.000260574
6 *3018:A *328:20 0.000392917
7 *3142:D *3018:A 2.28499e-05
8 *203:71 *3018:A 5.71472e-05
*RES
1 *3017:X *3018:A 33.3679 
*END

*D_NET *225 0.000313171
*CONN
*I *3020:A I *D sky130_fd_sc_hd__clkbuf_1
*I *3019:X O *D sky130_fd_sc_hd__mux2_1
*CAP
1 *3020:A 8.41991e-05
2 *3019:X 8.41991e-05
3 *3020:A *3019:A0 0
4 *2925:B1 *3020:A 0.000144773
*RES
1 *3019:X *3020:A 20.6893 
*END

*D_NET *226 0.000287329
*CONN
*I *3022:A I *D sky130_fd_sc_hd__clkbuf_1
*I *3021:X O *D sky130_fd_sc_hd__mux2_1
*CAP
1 *3022:A 0.000141666
2 *3021:X 0.000141666
3 *3022:A *3021:A1 3.99614e-06
*RES
1 *3021:X *3022:A 21.1 
*END

*D_NET *227 0.0019485
*CONN
*I *3024:A I *D sky130_fd_sc_hd__clkbuf_1
*I *3023:X O *D sky130_fd_sc_hd__mux2_1
*CAP
1 *3024:A 0.000730374
2 *3023:X 0.000730374
3 *3024:A *3039:A0 7.58841e-05
4 *3024:A *3145:CLK 0.000114298
5 *3024:A *3145:RESET_B 1.27739e-05
6 *3024:A *323:26 3.63061e-05
7 *3024:A *346:29 1.01277e-05
8 *3024:A *346:33 4.0552e-05
9 *3024:A *417:14 0.000126871
10 *3145:D *3024:A 3.97657e-05
11 *207:45 *3024:A 3.11713e-05
*RES
1 *3023:X *3024:A 38.9214 
*END

*D_NET *228 0.000808899
*CONN
*I *3026:A I *D sky130_fd_sc_hd__clkbuf_1
*I *3025:X O *D sky130_fd_sc_hd__mux2_1
*CAP
1 *3026:A 0.00011737
2 *3025:X 0.00011737
3 *3026:A *2923:A2 0.000128044
4 *2923:B1 *3026:A 9.90367e-05
5 *203:125 *3026:A 0.000347077
*RES
1 *3025:X *3026:A 22.8679 
*END

*D_NET *229 0.000205964
*CONN
*I *3028:A I *D sky130_fd_sc_hd__clkbuf_1
*I *3027:X O *D sky130_fd_sc_hd__mux2_1
*CAP
1 *3028:A 7.48325e-05
2 *3027:X 7.48325e-05
3 *3028:A *318:24 5.62995e-05
*RES
1 *3027:X *3028:A 20.2786 
*END

*D_NET *230 0.000950627
*CONN
*I *3030:A I *D sky130_fd_sc_hd__clkbuf_1
*I *3029:X O *D sky130_fd_sc_hd__mux2_1
*CAP
1 *3030:A 0.000281306
2 *3029:X 0.000281306
3 *3030:A *274:10 0.00019187
4 *3030:A *274:12 0.000142082
5 *3030:A *274:16 9.25014e-06
6 *3148:D *3030:A 4.48113e-05
*RES
1 *3029:X *3030:A 33.4571 
*END

*D_NET *231 0.0016953
*CONN
*I *3032:A I *D sky130_fd_sc_hd__clkbuf_1
*I *3031:X O *D sky130_fd_sc_hd__mux2_1
*CAP
1 *3032:A 0.000633286
2 *3031:X 0.000633286
3 *3032:A *327:31 0.000216862
4 *3032:A *344:49 0.000154762
5 *3032:A *429:67 5.5782e-05
6 *3133:D *3032:A 1.31795e-06
*RES
1 *3031:X *3032:A 36.6536 
*END

*D_NET *232 0.00106348
*CONN
*I *3034:A I *D sky130_fd_sc_hd__clkbuf_1
*I *3033:X O *D sky130_fd_sc_hd__mux2_1
*CAP
1 *3034:A 0.00035924
2 *3033:X 0.00035924
3 *3034:A *341:65 0
4 *3034:A *430:30 8.00806e-05
5 *3034:A *430:36 3.57366e-05
6 *172:20 *3034:A 0.00022918
*RES
1 *3033:X *3034:A 34.5464 
*END

*D_NET *233 0.000707434
*CONN
*I *3036:A I *D sky130_fd_sc_hd__clkbuf_1
*I *3035:X O *D sky130_fd_sc_hd__mux2_1
*CAP
1 *3036:A 0.000217876
2 *3035:X 0.000217876
3 *3036:A *3183:CLK 0
4 *3036:A *347:80 9.56968e-05
5 *3036:A *347:91 7.80929e-05
6 *3041:S *3036:A 5.62995e-05
7 *3151:D *3036:A 4.15914e-05
*RES
1 *3035:X *3036:A 32.6179 
*END

*D_NET *234 0.000553356
*CONN
*I *3038:A I *D sky130_fd_sc_hd__clkbuf_1
*I *3037:X O *D sky130_fd_sc_hd__mux2_1
*CAP
1 *3038:A 0.00020224
2 *3037:X 0.00020224
3 *3038:A *3144:RESET_B 3.57844e-05
4 *3038:A *3184:RESET_B 1.97695e-05
5 *3038:A *325:20 8.00806e-05
6 *3038:A *339:91 5.80706e-06
7 *3184:D *3038:A 7.43578e-06
*RES
1 *3037:X *3038:A 31.2607 
*END

*D_NET *235 0.000467506
*CONN
*I *3040:A I *D sky130_fd_sc_hd__clkbuf_1
*I *3039:X O *D sky130_fd_sc_hd__mux2_1
*CAP
1 *3040:A 0.000134887
2 *3039:X 0.000134887
3 *3040:A *2921:A2 1.32293e-05
4 *3040:A *323:32 0.000184503
*RES
1 *3039:X *3040:A 21.6357 
*END

*D_NET *236 0.0016508
*CONN
*I *3042:A I *D sky130_fd_sc_hd__clkbuf_1
*I *3041:X O *D sky130_fd_sc_hd__mux2_1
*CAP
1 *3042:A 0.000613153
2 *3041:X 0.000613153
3 *3042:A *2922:A2 3.92854e-05
4 *3042:A *3146:CLK 0.000112738
5 *2923:B1 *3042:A 3.92854e-05
6 *182:12 *3042:A 0.000233181
*RES
1 *3041:X *3042:A 36.475 
*END

*D_NET *237 0.0013926
*CONN
*I *3044:A I *D sky130_fd_sc_hd__clkbuf_1
*I *3043:X O *D sky130_fd_sc_hd__mux2_1
*CAP
1 *3044:A 0.000467575
2 *3043:X 0.000467575
3 *3044:A *3155:CLK 0.000248788
4 *3044:A *276:99 0
5 *3044:A *338:28 2.13481e-06
6 *3044:A *340:8 0.000154762
7 *3044:A *419:6 5.17614e-05
*RES
1 *3043:X *3044:A 35.0107 
*END

*D_NET *238 0.000774774
*CONN
*I *3046:A I *D sky130_fd_sc_hd__clkbuf_1
*I *3045:X O *D sky130_fd_sc_hd__mux2_1
*CAP
1 *3046:A 0.000367749
2 *3045:X 0.000367749
3 *3046:A *2931:B1 0
4 *3046:A *339:56 3.92757e-05
*RES
1 *3045:X *3046:A 33.6 
*END

*D_NET *239 0.000223452
*CONN
*I *3048:A I *D sky130_fd_sc_hd__clkbuf_1
*I *3047:X O *D sky130_fd_sc_hd__mux2_1
*CAP
1 *3048:A 6.64079e-05
2 *3047:X 6.64079e-05
3 *3048:A *427:28 5.17614e-05
4 *3047:S *3048:A 3.88751e-05
*RES
1 *3047:X *3048:A 20.2786 
*END

*D_NET *240 0.000427376
*CONN
*I *3050:A I *D sky130_fd_sc_hd__clkbuf_1
*I *3049:X O *D sky130_fd_sc_hd__mux2_1
*CAP
1 *3050:A 0.000123168
2 *3049:X 0.000123168
3 *3050:A *341:10 1.02504e-05
4 *3050:A *341:49 6.98302e-05
5 *3050:A *344:12 0.00010096
*RES
1 *3049:X *3050:A 30.3143 
*END

*D_NET *241 0.00103247
*CONN
*I *3052:A I *D sky130_fd_sc_hd__clkbuf_1
*I *3051:X O *D sky130_fd_sc_hd__mux2_1
*CAP
1 *3052:A 0.000332252
2 *3051:X 0.000332252
3 *3052:A *2953:A1 0
4 *3052:A *3159:CLK 4.1331e-06
5 *3052:A *320:8 0
6 *184:20 *3052:A 0.000363837
*RES
1 *3051:X *3052:A 32.9571 
*END

*D_NET *242 0.00056642
*CONN
*I *3054:A I *D sky130_fd_sc_hd__clkbuf_1
*I *3053:X O *D sky130_fd_sc_hd__mux2_1
*CAP
1 *3054:A 0.000235062
2 *3053:X 0.000235062
3 *3054:A *3160:CLK 0
4 *3160:D *3054:A 6.28601e-05
5 *194:108 *3054:A 0
6 *202:44 *3054:A 3.34366e-05
*RES
1 *3053:X *3054:A 31.975 
*END

*D_NET *243 0.00088509
*CONN
*I *3056:A I *D sky130_fd_sc_hd__clkbuf_1
*I *3055:X O *D sky130_fd_sc_hd__mux2_1
*CAP
1 *3056:A 0.00034035
2 *3055:X 0.00034035
3 *3056:A *3055:A0 0
4 *3056:A *3161:CLK 0.000142004
5 *3056:A *345:16 0
6 *3056:A *345:28 0
7 *3161:D *3056:A 5.49489e-05
8 *206:181 *3056:A 7.43578e-06
*RES
1 *3055:X *3056:A 32.7964 
*END

*D_NET *244 0.000766121
*CONN
*I *3058:A I *D sky130_fd_sc_hd__clkbuf_1
*I *3057:X O *D sky130_fd_sc_hd__mux2_1
*CAP
1 *3058:A 0.000359568
2 *3057:X 0.000359568
3 *3058:A *2882:B1 4.69852e-05
*RES
1 *3057:X *3058:A 33.7786 
*END

*D_NET *245 0.000649322
*CONN
*I *3060:A I *D sky130_fd_sc_hd__clkbuf_1
*I *3059:X O *D sky130_fd_sc_hd__mux2_1
*CAP
1 *3060:A 0.000265861
2 *3059:X 0.000265861
3 *3163:D *3060:A 0.000105163
4 *194:108 *3060:A 1.24368e-05
*RES
1 *3059:X *3060:A 23.5643 
*END

*D_NET *246 0.00143591
*CONN
*I *3062:A I *D sky130_fd_sc_hd__clkbuf_1
*I *3061:X O *D sky130_fd_sc_hd__mux2_1
*CAP
1 *3062:A 0.00041404
2 *3061:X 0.00041404
3 *3062:A *275:39 0.000173804
4 *3062:A *275:47 9.91086e-05
5 *3164:D *3062:A 1.97695e-05
6 *194:36 *3062:A 0.000315152
*RES
1 *3061:X *3062:A 34.7964 
*END

*D_NET *247 0.000267953
*CONN
*I *3064:A I *D sky130_fd_sc_hd__clkbuf_1
*I *3063:X O *D sky130_fd_sc_hd__mux2_1
*CAP
1 *3064:A 6.36303e-05
2 *3063:X 6.36303e-05
3 *3064:A *3063:A0 0
4 *3064:A *3111:A1 0.000104956
5 *3063:S *3064:A 0
6 *194:125 *3064:A 3.57366e-05
*RES
1 *3063:X *3064:A 20.2786 
*END

*D_NET *248 0.000525984
*CONN
*I *3066:A I *D sky130_fd_sc_hd__clkbuf_1
*I *3065:X O *D sky130_fd_sc_hd__mux2_1
*CAP
1 *3066:A 0.000173527
2 *3065:X 0.000173527
3 *194:82 *3066:A 0.00017893
*RES
1 *3065:X *3066:A 21.6357 
*END

*D_NET *249 0.000785641
*CONN
*I *3068:A I *D sky130_fd_sc_hd__clkbuf_1
*I *3067:X O *D sky130_fd_sc_hd__mux2_1
*CAP
1 *3068:A 0.000327436
2 *3067:X 0.000327436
3 *3068:A *279:52 5.33334e-05
4 *3167:D *3068:A 7.43578e-06
5 *207:64 *3068:A 6.99989e-05
*RES
1 *3067:X *3068:A 32.9214 
*END

*D_NET *250 0.000248224
*CONN
*I *3070:A I *D sky130_fd_sc_hd__clkbuf_1
*I *3069:X O *D sky130_fd_sc_hd__mux2_1
*CAP
1 *3070:A 7.36321e-05
2 *3069:X 7.36321e-05
3 *3070:A *322:28 0.00010096
*RES
1 *3069:X *3070:A 20.2786 
*END

*D_NET *251 0.000943462
*CONN
*I *3072:A I *D sky130_fd_sc_hd__clkbuf_1
*I *3071:X O *D sky130_fd_sc_hd__mux2_1
*CAP
1 *3072:A 0.000380876
2 *3071:X 0.000380876
3 *3072:A *3055:A0 0
4 *3072:A *3169:CLK 1.22793e-05
5 *206:181 *3072:A 0.000169431
*RES
1 *3071:X *3072:A 33.0821 
*END

*D_NET *252 0.000345392
*CONN
*I *3074:A I *D sky130_fd_sc_hd__clkbuf_1
*I *3073:X O *D sky130_fd_sc_hd__mux2_1
*CAP
1 *3074:A 0.000104127
2 *3073:X 0.000104127
3 *3074:A *384:27 3.47783e-05
4 *3073:S *3074:A 0.00010236
*RES
1 *3073:X *3074:A 21.1 
*END

*D_NET *253 0.00058298
*CONN
*I *3076:A I *D sky130_fd_sc_hd__clkbuf_1
*I *3075:X O *D sky130_fd_sc_hd__mux2_1
*CAP
1 *3076:A 0.000271847
2 *3075:X 0.000271847
3 *3076:A *3059:A0 0
4 *3076:A *3107:A1 0
5 *3076:A *277:116 0
6 *3171:D *3076:A 3.92854e-05
7 *202:71 *3076:A 0
8 *206:96 *3076:A 0
*RES
1 *3075:X *3076:A 31.975 
*END

*D_NET *254 0.0003318
*CONN
*I *3078:A I *D sky130_fd_sc_hd__clkbuf_1
*I *3077:X O *D sky130_fd_sc_hd__mux2_1
*CAP
1 *3078:A 9.42122e-05
2 *3077:X 9.42122e-05
3 *198:6 *3078:A 0.000143375
*RES
1 *3077:X *3078:A 20.6893 
*END

*D_NET *255 0.00122862
*CONN
*I *3080:A I *D sky130_fd_sc_hd__clkbuf_1
*I *3079:X O *D sky130_fd_sc_hd__mux2_1
*CAP
1 *3080:A 0.000425087
2 *3079:X 0.000425087
3 *3080:A *3170:CLK 2.79421e-05
4 *3080:A *3173:CLK 1.37068e-05
5 *3080:A *3181:CLK 0
6 *3080:A *280:93 7.15846e-05
7 *3080:A *348:104 0.000111341
8 *3073:S *3080:A 0.00010047
9 *3173:D *3080:A 5.33978e-05
*RES
1 *3079:X *3080:A 34.6714 
*END

*D_NET *256 0.000195216
*CONN
*I *3082:A I *D sky130_fd_sc_hd__clkbuf_1
*I *3081:X O *D sky130_fd_sc_hd__mux2_1
*CAP
1 *3082:A 4.41954e-05
2 *3081:X 4.41954e-05
3 *3082:A *278:50 5.52238e-05
4 *3081:S *3082:A 1.97695e-05
5 *198:104 *3082:A 3.18315e-05
*RES
1 *3081:X *3082:A 19.8679 
*END

*D_NET *257 0.00059157
*CONN
*I *3084:A I *D sky130_fd_sc_hd__clkbuf_1
*I *3083:X O *D sky130_fd_sc_hd__mux2_1
*CAP
1 *3084:A 0.000221317
2 *3083:X 0.000221317
3 *3084:A *3175:CLK 2.89114e-05
4 *3084:A *321:12 7.89362e-05
5 *3175:D *3084:A 4.10886e-05
*RES
1 *3083:X *3084:A 31.6714 
*END

*D_NET *258 0.000906384
*CONN
*I *3086:A I *D sky130_fd_sc_hd__clkbuf_1
*I *3085:X O *D sky130_fd_sc_hd__mux2_1
*CAP
1 *3086:A 0.000373973
2 *3085:X 0.000373973
3 *2917:A *3086:A 7.83587e-05
4 *207:137 *3086:A 8.00806e-05
*RES
1 *3085:X *3086:A 34.3143 
*END

*D_NET *259 0.000438678
*CONN
*I *3088:A I *D sky130_fd_sc_hd__clkbuf_1
*I *3087:X O *D sky130_fd_sc_hd__mux2_1
*CAP
1 *3088:A 0.000100923
2 *3087:X 0.000100923
3 *3088:A *304:10 0
4 *3088:A *312:10 8.00806e-05
5 *3088:A *346:41 0.000156751
*RES
1 *3087:X *3088:A 30.4929 
*END

*D_NET *260 0.000968278
*CONN
*I *3090:A I *D sky130_fd_sc_hd__clkbuf_1
*I *3089:X O *D sky130_fd_sc_hd__mux2_1
*CAP
1 *3090:A 0.000395733
2 *3089:X 0.000395733
3 *3090:A *2922:B1 0
4 *3090:A *3106:A 9.90367e-05
5 *3090:A *3186:RESET_B 0
6 *3090:A *3233:A 0
7 *3090:A *320:8 0
8 *3090:A *389:18 7.77751e-05
*RES
1 *3089:X *3090:A 34.2786 
*END

*D_NET *261 0.00236929
*CONN
*I *3092:A I *D sky130_fd_sc_hd__clkbuf_1
*I *3091:X O *D sky130_fd_sc_hd__mux2_1
*CAP
1 *3092:A 0.00105561
2 *3091:X 0.00105561
3 *3092:A *3187:CLK 5.76121e-05
4 *3092:A *314:8 5.37963e-05
5 *3179:D *3092:A 3.80953e-06
6 *3187:D *3092:A 0.00014285
*RES
1 *3091:X *3092:A 31.7786 
*END

*D_NET *262 0.000384944
*CONN
*I *3094:A I *D sky130_fd_sc_hd__clkbuf_1
*I *3093:X O *D sky130_fd_sc_hd__mux2_1
*CAP
1 *3094:A 0.000168075
2 *3093:X 0.000168075
3 *3094:A *3211:A 4.87953e-05
*RES
1 *3093:X *3094:A 21.5107 
*END

*D_NET *263 0.00117728
*CONN
*I *3096:A I *D sky130_fd_sc_hd__clkbuf_1
*I *3095:X O *D sky130_fd_sc_hd__mux2_1
*CAP
1 *3096:A 0.000246094
2 *3095:X 0.000246094
3 *3096:A *2918:B1 0
4 *3096:A *3232:A 0
5 *3096:A *300:16 8.1024e-05
6 *3096:A *319:22 0
7 *3096:A *319:33 0.000122159
8 *3096:A *348:104 0
9 *3057:S *3096:A 0.00024714
10 *198:39 *3096:A 3.17148e-05
11 *198:63 *3096:A 0.000203059
*RES
1 *3095:X *3096:A 34.5643 
*END

*D_NET *264 0.000176911
*CONN
*I *3098:A I *D sky130_fd_sc_hd__clkbuf_1
*I *3097:X O *D sky130_fd_sc_hd__mux2_1
*CAP
1 *3098:A 5.61366e-05
2 *3097:X 5.61366e-05
3 *202:106 *3098:A 6.46382e-05
4 *202:126 *3098:A 0
*RES
1 *3097:X *3098:A 19.8679 
*END

*D_NET *265 0.000660277
*CONN
*I *3100:A I *D sky130_fd_sc_hd__clkbuf_1
*I *3099:X O *D sky130_fd_sc_hd__mux2_1
*CAP
1 *3100:A 0.000272669
2 *3099:X 0.000272669
3 *3100:A *3183:CLK 1.02504e-05
4 *3100:A *423:29 7.57869e-05
5 *203:140 *3100:A 2.89016e-05
*RES
1 *3099:X *3100:A 31.725 
*END

*D_NET *266 0.000660757
*CONN
*I *3102:A I *D sky130_fd_sc_hd__clkbuf_1
*I *3101:X O *D sky130_fd_sc_hd__mux2_1
*CAP
1 *3102:A 0.000248283
2 *3101:X 0.000248283
3 *3102:A *322:28 1.74352e-05
4 *3102:A *325:20 0
5 *3037:S *3102:A 0.000105163
6 *3184:D *3102:A 4.15914e-05
7 *203:25 *3102:A 0
8 *207:137 *3102:A 0
*RES
1 *3101:X *3102:A 31.725 
*END

*D_NET *267 0.000885605
*CONN
*I *3104:A I *D sky130_fd_sc_hd__clkbuf_1
*I *3103:X O *D sky130_fd_sc_hd__mux2_1
*CAP
1 *3104:A 0.000251467
2 *3103:X 0.000251467
3 *3104:A *3177:CLK 3.34366e-05
4 *3104:A *3205:A 0
5 *3104:A *279:88 0.000115467
6 *3185:D *3104:A 1.33343e-05
7 *202:126 *3104:A 0.00018372
8 *206:181 *3104:A 3.67142e-05
*RES
1 *3103:X *3104:A 32.2607 
*END

*D_NET *268 0.000615889
*CONN
*I *3106:A I *D sky130_fd_sc_hd__clkbuf_1
*I *3105:X O *D sky130_fd_sc_hd__mux2_1
*CAP
1 *3106:A 0.000206571
2 *3105:X 0.000206571
3 *3106:A *3186:RESET_B 2.59355e-05
4 *3106:A *3218:A 0
5 *3090:A *3106:A 9.90367e-05
6 *3178:D *3106:A 7.77751e-05
*RES
1 *3105:X *3106:A 22.8679 
*END

*D_NET *269 0.000189121
*CONN
*I *3108:A I *D sky130_fd_sc_hd__clkbuf_1
*I *3107:X O *D sky130_fd_sc_hd__mux2_1
*CAP
1 *3108:A 9.45603e-05
2 *3107:X 9.45603e-05
*RES
1 *3107:X *3108:A 20.2786 
*END

*D_NET *270 0.000906335
*CONN
*I *3110:A I *D sky130_fd_sc_hd__clkbuf_1
*I *3109:X O *D sky130_fd_sc_hd__mux2_1
*CAP
1 *3110:A 0.000327312
2 *3109:X 0.000327312
3 *3110:A *3109:A0 5.71472e-05
4 *3110:A *3213:A 0.000104611
5 *206:8 *3110:A 8.99523e-05
*RES
1 *3109:X *3110:A 24.1 
*END

*D_NET *271 0.000805374
*CONN
*I *3112:A I *D sky130_fd_sc_hd__clkbuf_1
*I *3111:X O *D sky130_fd_sc_hd__mux2_1
*CAP
1 *3112:A 0.000352085
2 *3111:X 0.000352085
3 *3112:A *3189:RESET_B 0
4 *3112:A *3227:A 0
5 *3112:A *344:49 0
6 *3189:D *3112:A 3.92854e-05
7 *202:71 *3112:A 6.19181e-05
8 *206:104 *3112:A 0
*RES
1 *3111:X *3112:A 33.7429 
*END

*D_NET *272 0.00209787
*CONN
*I *3114:A I *D sky130_fd_sc_hd__clkbuf_1
*I *3113:X O *D sky130_fd_sc_hd__mux2_1
*CAP
1 *3114:A 0.000714222
2 *3113:X 0.000714222
3 *3114:A *2915:B1 7.83659e-05
4 *3114:A *3190:CLK 1.39841e-05
5 *3114:A *3228:A 7.83659e-05
6 *3114:A *278:28 0.0004382
7 *206:146 *3114:A 6.05091e-05
*RES
1 *3113:X *3114:A 38.4214 
*END

*D_NET *273 0.0279812
*CONN
*I *3199:A I *D sky130_fd_sc_hd__clkbuf_16
*I *3198:A I *D sky130_fd_sc_hd__clkbuf_16
*I *3197:A I *D sky130_fd_sc_hd__clkbuf_16
*I *3196:A I *D sky130_fd_sc_hd__clkbuf_16
*I *3195:A I *D sky130_fd_sc_hd__clkbuf_16
*I *3194:A I *D sky130_fd_sc_hd__clkbuf_16
*I *3193:A I *D sky130_fd_sc_hd__clkbuf_16
*I *3192:A I *D sky130_fd_sc_hd__clkbuf_16
*I *3191:X O *D sky130_fd_sc_hd__clkbuf_16
*CAP
1 *3199:A 0.000350915
2 *3198:A 4.32828e-05
3 *3197:A 0.000674378
4 *3196:A 0.0001581
5 *3195:A 0
6 *3194:A 0.000116019
7 *3193:A 0
8 *3192:A 0.000122971
9 *3191:X 8.38477e-06
10 *273:114 0.00111569
11 *273:76 0.00284946
12 *273:66 0.00445333
13 *273:50 0.00116969
14 *273:26 0.00172541
15 *273:14 0.0063173
16 *273:10 0.00538443
17 *3196:A *2880:A1 6.42449e-05
18 *3196:A *425:28 0.000121905
19 *3197:A *279:10 1.58784e-05
20 *3199:A *2883:A2 3.69047e-06
21 *3199:A *2902:B1 0.00029486
22 *3199:A *426:59 6.01151e-05
23 *273:10 *2965:A1 2.11419e-05
24 *273:10 *332:33 1.01912e-05
25 *273:14 *3160:RESET_B 0.000100717
26 *273:26 *362:24 0.000165869
27 *273:50 *2961:A1 9.5171e-05
28 *273:50 *2980:A1 0.000118315
29 *273:66 *3141:RESET_B 0.000101825
30 *273:76 *2880:A1 2.76148e-05
31 *273:76 *425:28 8.85809e-05
32 *273:76 *425:73 0.000148557
33 *273:114 *2902:B1 4.33002e-05
34 *2881:B1 *273:76 0
35 *2883:B1 *3199:A 1.28412e-05
36 *2926:A *3199:A 8.71847e-05
37 *2937:B *273:26 0.000190431
38 *3129:D *3197:A 2.33087e-05
39 *3191:A *273:14 4.58108e-05
40 *120:18 *273:76 0.000271478
41 *124:16 *3199:A 0.000211906
42 *124:16 *273:114 4.53834e-05
43 *139:16 *273:76 0.000143668
44 *149:12 *273:26 0.000236909
45 *156:16 *3199:A 4.22627e-05
46 *166:8 *273:50 4.87541e-05
47 *199:63 *3197:A 0.000512663
48 *206:40 *273:26 0.00013725
*RES
1 *3191:X *273:10 17.4868 
2 *273:10 *273:14 10.3394 
3 *273:14 *273:26 16.7603 
4 *273:26 *3192:A 11.0679 
5 *273:26 *3193:A 9.3 
6 *273:14 *273:50 14.5551 
7 *273:50 *3194:A 11.0679 
8 *273:50 *3195:A 9.3 
9 *273:10 *273:66 6.51983 
10 *273:66 *273:76 12.8674 
11 *273:76 *3196:A 16.8893 
12 *273:76 *3197:A 24.5679 
13 *273:66 *273:114 9.02186 
14 *273:114 *3198:A 14.3357 
15 *273:114 *3199:A 21.8179 
*END

*D_NET *274 0.00850027
*CONN
*I *3184:CLK I *D sky130_fd_sc_hd__dfrtp_1
*I *3152:CLK I *D sky130_fd_sc_hd__dfrtp_1
*I *3144:CLK I *D sky130_fd_sc_hd__dfrtp_1
*I *3148:CLK I *D sky130_fd_sc_hd__dfrtp_1
*I *3156:CLK I *D sky130_fd_sc_hd__dfrtp_1
*I *3188:CLK I *D sky130_fd_sc_hd__dfrtp_1
*I *3180:CLK I *D sky130_fd_sc_hd__dfrtp_1
*I *3192:X O *D sky130_fd_sc_hd__clkbuf_16
*CAP
1 *3184:CLK 0.000214744
2 *3152:CLK 9.18703e-05
3 *3144:CLK 0.000942808
4 *3148:CLK 0.000314075
5 *3156:CLK 0
6 *3188:CLK 0.0003481
7 *3180:CLK 0
8 *3192:X 0.000140816
9 *274:77 0.000473632
10 *274:54 0.00120163
11 *274:16 0.000852654
12 *274:12 0.000581006
13 *274:10 0.000631724
14 *274:8 0.000473819
15 *3144:CLK *322:10 0.000585759
16 *3184:CLK *340:22 0.000177948
17 *3188:CLK *3188:RESET_B 0
18 *3188:CLK *325:10 0.000197977
19 *274:10 *3029:A1 0
20 *274:10 *340:22 0
21 *274:12 *3029:A1 0
22 *274:16 *3029:A1 0
23 *274:16 *326:14 0
24 *274:77 *322:10 0.000127931
25 *3030:A *274:10 0.00019187
26 *3030:A *274:12 0.000142082
27 *3030:A *274:16 9.25014e-06
28 *3144:D *3144:CLK 1.93007e-05
29 *3152:D *3152:CLK 6.05161e-06
30 *3152:D *3184:CLK 0.000109383
31 *3156:D *274:16 3.79467e-05
32 *3180:D *3188:CLK 0.000168934
33 *203:14 *3184:CLK 0
34 *203:14 *274:10 0.00010596
35 *203:14 *274:54 9.18185e-05
36 *203:14 *274:77 0.000261174
*RES
1 *3192:X *274:8 15.9786 
2 *274:8 *274:10 5.89286 
3 *274:10 *274:12 1.94643 
4 *274:12 *274:16 14.0357 
5 *274:16 *3180:CLK 9.3 
6 *274:16 *3188:CLK 25.4964 
7 *274:12 *3156:CLK 13.8 
8 *274:10 *3148:CLK 17.5321 
9 *274:8 *274:54 2.25893 
10 *274:54 *3144:CLK 30.9875 
11 *274:54 *274:77 10.4375 
12 *274:77 *3152:CLK 10.6571 
13 *274:77 *3184:CLK 23.1393 
*END

*D_NET *275 0.0161387
*CONN
*I *3168:CLK I *D sky130_fd_sc_hd__dfrtp_1
*I *3128:CLK I *D sky130_fd_sc_hd__dfrtp_1
*I *3134:CLK I *D sky130_fd_sc_hd__dfrtp_1
*I *3150:CLK I *D sky130_fd_sc_hd__dfrtp_1
*I *3158:CLK I *D sky130_fd_sc_hd__dfrtp_1
*I *3164:CLK I *D sky130_fd_sc_hd__dfrtp_1
*I *3132:CLK I *D sky130_fd_sc_hd__dfrtp_1
*I *3140:CLK I *D sky130_fd_sc_hd__dfrtp_1
*I *3172:CLK I *D sky130_fd_sc_hd__dfrtp_1
*I *3136:CLK I *D sky130_fd_sc_hd__dfrtp_1
*I *3193:X O *D sky130_fd_sc_hd__clkbuf_16
*CAP
1 *3168:CLK 0.000182778
2 *3128:CLK 6.49063e-05
3 *3134:CLK 2.9982e-05
4 *3150:CLK 7.5434e-05
5 *3158:CLK 2.91597e-05
6 *3164:CLK 5.20936e-05
7 *3132:CLK 9.66269e-05
8 *3140:CLK 8.56566e-05
9 *3172:CLK 0.000182912
10 *3136:CLK 0
11 *3193:X 0.000292166
12 *275:70 0.00143969
13 *275:47 0.00226714
14 *275:39 0.00117307
15 *275:37 0.000891552
16 *275:35 0.00118703
17 *275:31 0.000655986
18 *275:27 0.00149678
19 *275:14 0.00154906
20 *275:10 0.000674779
21 *3128:CLK *344:37 0.000195412
22 *3134:CLK *3128:RESET_B 9.40308e-05
23 *3164:CLK *3164:RESET_B 9.60939e-05
24 *3168:CLK *424:81 7.77652e-05
25 *3172:CLK *2891:B1 0
26 *275:27 *3136:RESET_B 9.18583e-05
27 *275:27 *344:37 0.00012249
28 *275:27 *400:12 1.29975e-05
29 *275:31 *3128:RESET_B 0.000184976
30 *275:35 *344:37 0
31 *275:37 *344:12 0
32 *275:37 *344:37 0
33 *275:47 *2891:B1 7.57709e-05
34 *275:47 *3172:RESET_B 0.000199173
35 *275:47 *3215:A 5.23057e-05
36 *275:70 *2891:B1 0
37 *275:70 *3140:RESET_B 9.23759e-05
38 *275:70 *390:26 2.56601e-05
39 *275:70 *404:12 3.34295e-05
40 *2877:B *3128:CLK 0.00018519
41 *2877:B *275:27 0.000124157
42 *3062:A *275:39 0.000173804
43 *3062:A *275:47 9.91086e-05
44 *3136:D *275:27 5.50052e-05
45 *3140:D *3132:CLK 7.83659e-05
46 *3140:D *275:70 5.52302e-05
47 *3150:D *275:37 0.00010326
48 *3158:D *275:37 0
49 *3164:D *275:47 0.000100831
50 *3168:D *3168:CLK 6.20461e-05
51 *3172:D *3172:CLK 6.07506e-05
52 *3172:D *275:70 1.92528e-05
53 *134:16 *3134:CLK 0.000185408
54 *134:16 *275:31 0.000352381
55 *172:20 *275:35 0
56 *172:20 *275:37 0
57 *194:20 *3172:CLK 5.45307e-05
58 *194:20 *275:47 8.30315e-05
59 *194:82 *275:27 0.000394949
60 *198:29 *3158:CLK 1.92905e-05
61 *202:27 *3168:CLK 0
62 *203:60 *3150:CLK 0.000102197
63 *206:146 *3164:CLK 4.87953e-05
*RES
1 *3193:X *275:10 18.7107 
2 *275:10 *275:14 7.91071 
3 *275:14 *3136:CLK 9.3 
4 *275:14 *275:27 22.1964 
5 *275:27 *275:31 7.91071 
6 *275:31 *275:35 14.0357 
7 *275:35 *275:37 10.1429 
8 *275:37 *275:39 5.28571 
9 *275:39 *275:47 20.7321 
10 *275:47 *3172:CLK 16.9786 
11 *275:47 *275:70 22.2679 
12 *275:70 *3140:CLK 10.5679 
13 *275:70 *3132:CLK 20.0679 
14 *275:39 *3164:CLK 15.175 
15 *275:37 *3158:CLK 14.3357 
16 *275:35 *3150:CLK 15.5679 
17 *275:31 *3134:CLK 11.0679 
18 *275:27 *3128:CLK 16.3536 
19 *275:10 *3168:CLK 17.7107 
*END

*D_NET *276 0.0140056
*CONN
*I *3147:CLK I *D sky130_fd_sc_hd__dfrtp_1
*I *3126:CLK I *D sky130_fd_sc_hd__dfrtp_1
*I *3187:CLK I *D sky130_fd_sc_hd__dfrtp_1
*I *3179:CLK I *D sky130_fd_sc_hd__dfrtp_1
*I *3155:CLK I *D sky130_fd_sc_hd__dfrtp_1
*I *3139:CLK I *D sky130_fd_sc_hd__dfrtp_1
*I *3176:CLK I *D sky130_fd_sc_hd__dfrtp_1
*I *3125:CLK I *D sky130_fd_sc_hd__dfrtp_1
*I *3120:CLK I *D sky130_fd_sc_hd__dfrtp_4
*I *3194:X O *D sky130_fd_sc_hd__clkbuf_16
*CAP
1 *3147:CLK 0.000750573
2 *3126:CLK 2.22537e-05
3 *3187:CLK 0.000221106
4 *3179:CLK 7.88454e-05
5 *3155:CLK 0.000250233
6 *3139:CLK 0.000517162
7 *3176:CLK 0.000351843
8 *3125:CLK 0.000385948
9 *3120:CLK 8.71804e-05
10 *3194:X 9.80154e-05
11 *276:99 0.000703869
12 *276:86 0.000805318
13 *276:78 0.000297091
14 *276:70 0.00126063
15 *276:27 0.00106823
16 *276:12 0.000494175
17 *276:10 0.000708497
18 *276:8 0.000599184
19 *3120:CLK *3176:RESET_B 3.17148e-05
20 *3120:CLK *337:37 0.000357952
21 *3120:CLK *343:73 0.000302728
22 *3120:CLK *343:75 5.33005e-05
23 *3120:CLK *343:85 3.17148e-05
24 *3125:CLK *337:37 5.00524e-05
25 *3126:CLK *2909:A1 9.60939e-05
26 *3126:CLK *411:23 4.00319e-05
27 *3139:CLK *2961:A0 0.000262069
28 *3139:CLK *2961:A1 5.68713e-05
29 *3139:CLK *2961:S 5.33005e-05
30 *3139:CLK *2980:A1 5.72869e-05
31 *3139:CLK *318:55 0.000146321
32 *3139:CLK *428:16 0.000356035
33 *3147:CLK *2909:A1 0
34 *3147:CLK *3147:RESET_B 7.40473e-05
35 *3155:CLK *338:28 0.000305082
36 *3176:CLK *340:8 0
37 *3176:CLK *362:16 1.72894e-05
38 *3179:CLK *2909:B1 2.89114e-05
39 *276:10 *343:85 0.000242215
40 *276:12 *3220:A 0
41 *276:12 *343:85 0.000143797
42 *276:27 *3125:RESET_B 8.79458e-05
43 *276:27 *337:37 2.43393e-05
44 *276:27 *343:75 5.33005e-05
45 *276:70 *2909:B1 0
46 *276:70 *3155:RESET_B 9.25014e-06
47 *276:70 *325:31 0
48 *276:70 *343:85 0.000711082
49 *276:78 *2909:A1 9.00789e-05
50 *276:78 *411:6 0.000274294
51 *276:78 *411:23 3.77662e-05
52 *276:86 *2909:B1 0.000164087
53 *276:86 *3155:RESET_B 0
54 *276:99 *2909:B1 0.000379873
55 *2910:B1 *276:70 0
56 *2917:A *276:10 0
57 *2917:A *276:12 0
58 *2962:A *3139:CLK 0.000262388
59 *3027:S *3120:CLK 1.3142e-05
60 *3044:A *3155:CLK 0.000248788
61 *3044:A *276:99 0
62 *3092:A *3187:CLK 5.76121e-05
63 *3120:D *3139:CLK 0.000117543
64 *3125:D *3176:CLK 0
65 *3155:D *3155:CLK 3.53199e-05
66 *3179:D *3187:CLK 3.18676e-05
67 *3179:D *276:99 0
*RES
1 *3194:X *276:8 14.7464 
2 *276:8 *276:10 3.16071 
3 *276:10 *276:12 1.94643 
4 *276:12 *3120:CLK 17.9429 
5 *276:12 *276:27 8.32143 
6 *276:27 *3125:CLK 14.2643 
7 *276:27 *3176:CLK 24.675 
8 *276:10 *3139:CLK 27.2107 
9 *276:8 *276:70 13.7321 
10 *276:70 *276:78 3.98214 
11 *276:78 *276:86 7.71429 
12 *276:86 *3155:CLK 21.7464 
13 *276:86 *276:99 9.53571 
14 *276:99 *3179:CLK 15.1571 
15 *276:99 *3187:CLK 18.1214 
16 *276:78 *3126:CLK 10.2464 
17 *276:70 *3147:CLK 18.6929 
*END

*D_NET *277 0.0164545
*CONN
*I *3165:CLK I *D sky130_fd_sc_hd__dfrtp_1
*I *3189:CLK I *D sky130_fd_sc_hd__dfrtp_1
*I *3171:CLK I *D sky130_fd_sc_hd__dfrtp_1
*I *3163:CLK I *D sky130_fd_sc_hd__dfrtp_1
*I *3131:CLK I *D sky130_fd_sc_hd__dfrtp_1
*I *3157:CLK I *D sky130_fd_sc_hd__dfrtp_1
*I *3133:CLK I *D sky130_fd_sc_hd__dfrtp_1
*I *3121:CLK I *D sky130_fd_sc_hd__dfrtp_4
*I *3124:CLK I *D sky130_fd_sc_hd__dfrtp_1
*I *3123:CLK I *D sky130_fd_sc_hd__dfrtp_1
*I *3160:CLK I *D sky130_fd_sc_hd__dfrtp_1
*I *3195:X O *D sky130_fd_sc_hd__clkbuf_16
*CAP
1 *3165:CLK 0.000190398
2 *3189:CLK 0
3 *3171:CLK 0
4 *3163:CLK 5.93839e-05
5 *3131:CLK 0.000223882
6 *3157:CLK 0
7 *3133:CLK 0.000581793
8 *3121:CLK 0
9 *3124:CLK 0.000328361
10 *3123:CLK 1.97602e-05
11 *3160:CLK 0.000625002
12 *3195:X 0
13 *277:123 0.000630232
14 *277:116 0.000648482
15 *277:103 0.000554528
16 *277:90 0.00124915
17 *277:79 0.00107674
18 *277:66 0.00122746
19 *277:40 0.000782188
20 *277:30 0.000835115
21 *277:17 0.000778435
22 *277:4 0.00131009
23 *3131:CLK *3131:RESET_B 0
24 *3160:CLK *3011:A1 0.000364953
25 *3160:CLK *343:57 7.83587e-05
26 *3160:CLK *428:16 0
27 *3163:CLK *3091:A0 6.05161e-06
28 *3165:CLK *3171:RESET_B 0.000189463
29 *3165:CLK *389:28 0.000200472
30 *277:17 *2890:A1 5.52238e-05
31 *277:17 *2890:A2 2.89016e-05
32 *277:66 *2889:B1 0.000205849
33 *277:79 *2869:B1 3.27526e-05
34 *277:79 *2889:B1 0.000302844
35 *277:90 *2869:A1 3.13687e-05
36 *277:90 *2869:B1 4.40153e-05
37 *277:90 *342:69 0
38 *277:90 *427:70 2.00997e-05
39 *277:90 *427:72 0.00010731
40 *277:103 *3131:RESET_B 0
41 *277:103 *3163:RESET_B 0
42 *277:116 *3091:A0 0.000150625
43 *277:116 *3107:A1 3.34672e-05
44 *277:123 *3171:RESET_B 0.000219385
45 *2870:B1 *277:90 9.83388e-05
46 *2917:D *3124:CLK 9.41642e-05
47 *2976:A *3124:CLK 0.000175932
48 *2996:A *3131:CLK 0
49 *2996:A *277:90 7.77652e-05
50 *3011:S *3124:CLK 0.000118374
51 *3011:S *277:40 9.90431e-05
52 *3012:A *277:17 5.33005e-05
53 *3047:S *3131:CLK 9.3111e-05
54 *3054:A *3160:CLK 0
55 *3076:A *277:116 0
56 *3121:D *277:40 8.00806e-05
57 *3123:D *277:40 0.000127439
58 *3124:D *3124:CLK 1.39726e-05
59 *3131:D *3131:CLK 0.000131574
60 *3133:D *3133:CLK 2.11336e-05
61 *3139:D *3160:CLK 0.000125717
62 *3139:D *277:17 2.22999e-05
63 *3160:D *3160:CLK 0
64 *3163:D *277:103 0
65 *3171:D *277:123 5.97518e-05
66 *3189:D *3165:CLK 0.000272203
67 *109:12 *3124:CLK 0.000311681
68 *109:12 *277:40 0
69 *128:14 *277:17 9.62422e-05
70 *128:14 *277:30 2.07394e-05
71 *128:14 *277:40 0.000176305
72 *195:115 *3124:CLK 9.9784e-05
73 *202:44 *3131:CLK 4.7024e-05
74 *202:44 *3160:CLK 0
75 *202:44 *277:103 0.000201816
76 *202:44 *277:116 1.5942e-05
77 *202:71 *3165:CLK 0.000273269
78 *202:71 *277:116 6.8551e-05
79 *206:59 *3160:CLK 0
80 *206:96 *277:123 0.000286759
*RES
1 *3195:X *277:4 9.3 
2 *277:4 *3160:CLK 30.8714 
3 *277:4 *277:17 11.2143 
4 *277:17 *3123:CLK 9.72857 
5 *277:17 *277:30 5.875 
6 *277:30 *277:40 14.125 
7 *277:40 *3124:CLK 26.6571 
8 *277:40 *3121:CLK 9.3 
9 *277:30 *277:66 6.80357 
10 *277:66 *3133:CLK 22.9607 
11 *277:66 *277:79 11.9107 
12 *277:79 *3157:CLK 9.3 
13 *277:79 *277:90 14.3929 
14 *277:90 *3131:CLK 18.7286 
15 *277:90 *277:103 6.80357 
16 *277:103 *3163:CLK 14.7464 
17 *277:103 *277:116 9.48214 
18 *277:116 *3171:CLK 9.3 
19 *277:116 *277:123 10.3929 
20 *277:123 *3189:CLK 9.3 
21 *277:123 *3165:CLK 17.6393 
*END

*D_NET *278 0.0141629
*CONN
*I *3122:CLK I *D sky130_fd_sc_hd__dfrtp_4
*I *3166:CLK I *D sky130_fd_sc_hd__dfrtp_1
*I *3137:CLK I *D sky130_fd_sc_hd__dfrtp_1
*I *3142:CLK I *D sky130_fd_sc_hd__dfrtp_1
*I *3174:CLK I *D sky130_fd_sc_hd__dfrtp_1
*I *3169:CLK I *D sky130_fd_sc_hd__dfrtp_1
*I *3161:CLK I *D sky130_fd_sc_hd__dfrtp_1
*I *3182:CLK I *D sky130_fd_sc_hd__dfrtp_1
*I *3190:CLK I *D sky130_fd_sc_hd__dfrtp_1
*I *3196:X O *D sky130_fd_sc_hd__clkbuf_16
*CAP
1 *3122:CLK 0.000301689
2 *3166:CLK 0
3 *3137:CLK 0.000869471
4 *3142:CLK 3.72704e-05
5 *3174:CLK 3.2426e-05
6 *3169:CLK 0.000111118
7 *3161:CLK 0.000167064
8 *3182:CLK 0
9 *3190:CLK 0.00014803
10 *3196:X 0.000312093
11 *278:115 0.000986141
12 *278:92 0.00170223
13 *278:50 0.000684091
14 *278:28 0.000731668
15 *278:20 0.00112517
16 *278:16 0.000429011
17 *278:10 0.000410786
18 *278:8 0.000572955
19 *3122:CLK *2875:B1 0.000122433
20 *3122:CLK *327:10 0.000179062
21 *3122:CLK *336:10 0
22 *3122:CLK *430:14 0.000176234
23 *3137:CLK *2900:A1 5.48394e-05
24 *3137:CLK *2900:B1 2.29781e-05
25 *3137:CLK *430:102 0.000224582
26 *3161:CLK *345:106 0
27 *3190:CLK *3164:RESET_B 0
28 *3190:CLK *327:10 0
29 *278:8 *328:20 0.000110107
30 *278:10 *336:10 0
31 *278:16 *2915:B1 0.000367396
32 *278:16 *336:10 0
33 *278:20 *2915:B1 0
34 *278:20 *328:14 0
35 *278:28 *2915:B1 0
36 *278:28 *3097:A0 4.62539e-05
37 *278:28 *3214:A 0.000227532
38 *278:28 *328:14 0
39 *278:50 *3081:A1 0.000227263
40 *278:115 *2875:B1 7.26242e-05
41 *278:115 *430:102 0.000452565
42 *2896:B1 *278:10 0.000100969
43 *2896:B1 *278:16 8.15939e-05
44 *2896:B1 *278:92 9.94589e-05
45 *2901:B1 *3137:CLK 9.58689e-05
46 *3018:A *278:8 0.000260574
47 *3056:A *3161:CLK 0.000142004
48 *3072:A *3169:CLK 1.22793e-05
49 *3081:S *278:50 0.000108422
50 *3082:A *278:50 5.52238e-05
51 *3114:A *3190:CLK 1.39841e-05
52 *3114:A *278:28 0.0004382
53 *3142:D *278:8 0.000178847
54 *3161:D *3161:CLK 2.23592e-05
55 *3169:D *3169:CLK 5.95114e-05
56 *3174:D *278:20 0
57 *3182:D *278:28 7.32173e-05
58 *3190:D *3190:CLK 3.92757e-05
59 *194:36 *3190:CLK 0
60 *198:33 *278:16 8.23082e-05
61 *198:33 *278:20 0.000176234
62 *198:33 *278:92 5.20919e-05
63 *198:33 *278:115 0.000164641
64 *198:104 *278:50 0.000142261
65 *202:126 *3161:CLK 0.000126792
66 *203:71 *278:10 4.46186e-06
67 *203:71 *278:92 0.000183262
68 *203:71 *278:115 3.48742e-05
69 *206:146 *3190:CLK 5.52302e-05
70 *206:146 *278:28 0.000280409
71 *206:181 *3161:CLK 0.00011898
72 *206:181 *3169:CLK 5.45307e-05
*RES
1 *3196:X *278:8 20.0857 
2 *278:8 *278:10 2.55357 
3 *278:10 *278:16 11.25 
4 *278:16 *278:20 7.66071 
5 *278:20 *278:28 19.2857 
6 *278:28 *3190:CLK 21.0857 
7 *278:28 *3182:CLK 9.3 
8 *278:20 *278:50 12.8393 
9 *278:50 *3161:CLK 22.8536 
10 *278:50 *3169:CLK 11.4964 
11 *278:16 *3174:CLK 9.83571 
12 *278:10 *3142:CLK 14.3357 
13 *278:8 *278:92 4.67857 
14 *278:92 *3137:CLK 28.7643 
15 *278:92 *278:115 16.9821 
16 *278:115 *3166:CLK 9.3 
17 *278:115 *3122:CLK 25.8179 
*END

*D_NET *279 0.0143838
*CONN
*I *3153:CLK I *D sky130_fd_sc_hd__dfrtp_1
*I *3145:CLK I *D sky130_fd_sc_hd__dfrtp_1
*I *3185:CLK I *D sky130_fd_sc_hd__dfrtp_1
*I *3177:CLK I *D sky130_fd_sc_hd__dfrtp_1
*I *3129:CLK I *D sky130_fd_sc_hd__dfrtp_1
*I *3117:CLK I *D sky130_fd_sc_hd__dfrtp_4
*I *3135:CLK I *D sky130_fd_sc_hd__dfrtp_1
*I *3167:CLK I *D sky130_fd_sc_hd__dfrtp_1
*I *3138:CLK I *D sky130_fd_sc_hd__dfrtp_1
*I *3116:CLK I *D sky130_fd_sc_hd__dfrtp_4
*I *3197:X O *D sky130_fd_sc_hd__clkbuf_16
*CAP
1 *3153:CLK 0.000215182
2 *3145:CLK 0.000282728
3 *3185:CLK 0
4 *3177:CLK 0.00086814
5 *3129:CLK 0
6 *3117:CLK 0
7 *3135:CLK 0.00016686
8 *3167:CLK 3.82418e-05
9 *3138:CLK 0.000276189
10 *3116:CLK 2.3671e-05
11 *3197:X 0
12 *279:112 0.000646486
13 *279:88 0.00156857
14 *279:52 0.00149094
15 *279:44 0.00136445
16 *279:22 0.000685816
17 *279:16 0.00101546
18 *279:10 0.000833737
19 *279:6 0.00126728
20 *279:4 0.000432583
21 *3116:CLK *3116:RESET_B 5.52302e-05
22 *3138:CLK *2955:A0 0.000402784
23 *3138:CLK *320:8 0
24 *3138:CLK *324:10 0
25 *3145:CLK *2920:B1 8.61447e-05
26 *3145:CLK *2940:B1 0
27 *3145:CLK *425:12 2.28343e-05
28 *3145:CLK *425:20 0.000193596
29 *3153:CLK *2920:A1 9.58689e-05
30 *3153:CLK *2920:B1 0.000175657
31 *3153:CLK *409:12 6.75952e-05
32 *3153:CLK *417:14 8.10737e-06
33 *3177:CLK *3177:RESET_B 0.000179995
34 *3177:CLK *304:10 0.000141326
35 *279:16 *320:8 0
36 *279:16 *346:77 0.000402495
37 *279:22 *320:8 0
38 *279:22 *324:10 0
39 *279:44 *346:77 2.89114e-05
40 *279:52 *320:8 0
41 *279:52 *424:14 0.000227539
42 *279:88 *3103:A0 0
43 *279:88 *3205:A 0
44 *279:112 *2920:B1 4.97967e-05
45 *2921:B1 *3153:CLK 0.000100165
46 *2941:B1 *3145:CLK 1.0609e-05
47 *2941:B1 *279:112 1.47872e-05
48 *3024:A *3145:CLK 0.000114298
49 *3068:A *279:52 5.33334e-05
50 *3104:A *3177:CLK 3.34366e-05
51 *3104:A *279:88 0.000115467
52 *3116:D *279:52 0
53 *3117:D *279:52 9.37018e-05
54 *3129:D *279:10 3.50746e-05
55 *3129:D *279:16 7.89362e-05
56 *3138:D *3138:CLK 0.00010096
57 *3145:D *3145:CLK 4.22908e-05
58 *3153:D *3153:CLK 0.000101062
59 *3167:D *279:52 9.99644e-06
60 *3177:D *3177:CLK 5.52238e-05
61 *3197:A *279:10 1.58784e-05
62 *199:63 *279:16 5.50768e-05
63 *199:80 *279:16 0
64 *206:181 *279:88 0
65 *207:64 *3135:CLK 3.92854e-05
*RES
1 *3197:X *279:4 9.3 
2 *279:4 *279:6 3.41071 
3 *279:6 *279:10 3.73214 
4 *279:10 *279:16 21.2679 
5 *279:16 *279:22 10.875 
6 *279:22 *3116:CLK 14.3357 
7 *279:22 *3138:CLK 19.8714 
8 *279:16 *279:44 1.35714 
9 *279:44 *279:52 25.8393 
10 *279:52 *3167:CLK 10.0321 
11 *279:52 *3135:CLK 21.0143 
12 *279:44 *3117:CLK 9.3 
13 *279:10 *3129:CLK 9.3 
14 *279:6 *279:88 17.375 
15 *279:88 *3177:CLK 25.6393 
16 *279:88 *3185:CLK 13.8 
17 *279:4 *279:112 2.60714 
18 *279:112 *3145:CLK 25.3357 
19 *279:112 *3153:CLK 14.3714 
*END

*D_NET *280 0.0164221
*CONN
*I *3130:CLK I *D sky130_fd_sc_hd__dfrtp_1
*I *3181:CLK I *D sky130_fd_sc_hd__dfrtp_1
*I *3170:CLK I *D sky130_fd_sc_hd__dfrtp_1
*I *3173:CLK I *D sky130_fd_sc_hd__dfrtp_1
*I *3162:CLK I *D sky130_fd_sc_hd__dfrtp_1
*I *3149:CLK I *D sky130_fd_sc_hd__dfrtp_1
*I *3119:CLK I *D sky130_fd_sc_hd__dfrtp_4
*I *3141:CLK I *D sky130_fd_sc_hd__dfrtp_1
*I *3118:CLK I *D sky130_fd_sc_hd__dfrtp_4
*I *3198:X O *D sky130_fd_sc_hd__clkbuf_16
*CAP
1 *3130:CLK 0
2 *3181:CLK 0.00114226
3 *3170:CLK 3.70511e-05
4 *3173:CLK 6.93093e-05
5 *3162:CLK 2.91597e-05
6 *3149:CLK 0.000951834
7 *3119:CLK 2.50086e-05
8 *3141:CLK 0.0006492
9 *3118:CLK 0.000231414
10 *3198:X 5.54804e-05
11 *280:93 0.000186455
12 *280:89 0.00136046
13 *280:78 0.000597385
14 *280:59 0.00149338
15 *280:48 0.000353718
16 *280:44 0.000635057
17 *280:10 0.000961505
18 *280:8 0.000554146
19 *3118:CLK *348:48 0.000372728
20 *3141:CLK *2898:A1 0.000139907
21 *3141:CLK *2898:A2 0.000227539
22 *3141:CLK *3141:RESET_B 9.09013e-05
23 *3149:CLK *2918:A1 4.87953e-05
24 *3149:CLK *2918:A2 5.52302e-05
25 *3149:CLK *2918:B1 0.00010096
26 *3149:CLK *338:49 0
27 *3149:CLK *413:6 5.33005e-05
28 *3170:CLK *3079:A0 4.18895e-05
29 *3173:CLK *3079:A0 0.000150625
30 *3181:CLK *3173:RESET_B 4.85631e-05
31 *3181:CLK *3181:RESET_B 0.000264678
32 *3181:CLK *3237:A 6.28241e-05
33 *3181:CLK *300:6 8.10688e-05
34 *3181:CLK *300:16 0
35 *3181:CLK *319:22 0.0002452
36 *280:10 *348:48 0.000311495
37 *280:44 *332:97 0
38 *280:44 *348:48 0.000485111
39 *280:48 *300:16 0.000120369
40 *280:59 *300:16 5.75896e-05
41 *280:78 *300:16 0.000298632
42 *280:89 *300:16 1.50563e-05
43 *280:93 *3079:A0 0.000318107
44 *2886:A *280:44 0.000173364
45 *2888:A *3141:CLK 0.000151061
46 *2906:A *3118:CLK 6.24997e-05
47 *2919:B1 *3149:CLK 0.000318101
48 *2947:C *3149:CLK 0.000124228
49 *2958:A *3118:CLK 0
50 *3057:S *3162:CLK 1.92905e-05
51 *3057:S *280:89 2.34204e-05
52 *3073:S *3170:CLK 2.14658e-05
53 *3073:S *3173:CLK 1.20379e-05
54 *3080:A *3170:CLK 2.79421e-05
55 *3080:A *3173:CLK 1.37068e-05
56 *3080:A *3181:CLK 0
57 *3080:A *280:93 7.15846e-05
58 *3119:D *280:48 0
59 *3141:D *3141:CLK 5.12538e-05
60 *3149:D *3149:CLK 0.000288711
61 *3162:D *280:78 0
62 *3173:D *3181:CLK 0
63 *125:22 *3118:CLK 5.59013e-05
64 *125:22 *3141:CLK 0.000785366
65 *125:22 *280:10 0.000320024
66 *125:22 *280:44 0.000202842
67 *156:16 *3119:CLK 5.52302e-05
68 *182:12 *3149:CLK 0.000462549
69 *198:63 *3181:CLK 0.000258107
*RES
1 *3198:X *280:8 14.3357 
2 *280:8 *280:10 4.07143 
3 *280:10 *3118:CLK 19.4429 
4 *280:10 *3141:CLK 30.1036 
5 *280:8 *280:44 14.2143 
6 *280:44 *280:48 9.17857 
7 *280:48 *3119:CLK 14.3357 
8 *280:48 *280:59 2.25 
9 *280:59 *3149:CLK 31.7643 
10 *280:59 *280:78 10.1429 
11 *280:78 *3162:CLK 14.3357 
12 *280:78 *280:89 2.55357 
13 *280:89 *280:93 7.5 
14 *280:93 *3173:CLK 21.1571 
15 *280:93 *3170:CLK 10.2464 
16 *280:89 *3181:CLK 31.2643 
17 *280:44 *3130:CLK 9.3 
*END

*D_NET *281 0.0145908
*CONN
*I *3143:CLK I *D sky130_fd_sc_hd__dfrtp_1
*I *3175:CLK I *D sky130_fd_sc_hd__dfrtp_1
*I *3127:CLK I *D sky130_fd_sc_hd__dfrtp_1
*I *3159:CLK I *D sky130_fd_sc_hd__dfrtp_1
*I *3186:CLK I *D sky130_fd_sc_hd__dfrtp_1
*I *3178:CLK I *D sky130_fd_sc_hd__dfrtp_1
*I *3115:CLK I *D sky130_fd_sc_hd__dfrtp_4
*I *3183:CLK I *D sky130_fd_sc_hd__dfrtp_1
*I *3151:CLK I *D sky130_fd_sc_hd__dfrtp_1
*I *3154:CLK I *D sky130_fd_sc_hd__dfrtp_1
*I *3146:CLK I *D sky130_fd_sc_hd__dfrtp_1
*I *3199:X O *D sky130_fd_sc_hd__clkbuf_16
*CAP
1 *3143:CLK 0
2 *3175:CLK 0.000127582
3 *3127:CLK 1.69531e-05
4 *3159:CLK 0.000285864
5 *3186:CLK 0.000480997
6 *3178:CLK 0.000250214
7 *3115:CLK 4.93493e-05
8 *3183:CLK 0.000455363
9 *3151:CLK 0
10 *3154:CLK 0
11 *3146:CLK 3.62403e-05
12 *3199:X 0
13 *281:143 0.000953583
14 *281:115 0.000386729
15 *281:113 0.00114479
16 *281:72 0.000501158
17 *281:44 0.000811069
18 *281:38 0.00136321
19 *281:32 0.00143879
20 *281:23 0.000359105
21 *281:10 0.00115674
22 *281:4 0.00114815
23 *3159:CLK *2953:A1 0
24 *3159:CLK *320:8 0
25 *3175:CLK *321:12 0
26 *3175:CLK *423:29 0.000199698
27 *3183:CLK *347:80 0
28 *3183:CLK *423:29 0.000126439
29 *3186:CLK *2902:B1 0
30 *3186:CLK *3057:A1 0
31 *3186:CLK *3236:A 0
32 *3186:CLK *320:8 0
33 *3186:CLK *384:40 0.000153273
34 *281:10 *2902:B1 0
35 *281:10 *320:8 0
36 *281:23 *2902:B1 0
37 *281:23 *320:8 0
38 *281:32 *2902:B1 0
39 *281:32 *320:8 0
40 *281:38 *347:95 0.000663744
41 *281:44 *332:116 8.27217e-05
42 *281:72 *332:116 5.0725e-05
43 *281:113 *320:8 0
44 *281:115 *320:8 0
45 *281:143 *2884:B1 0.000166407
46 *281:143 *2924:A1 5.52302e-05
47 *281:143 *2925:A1 5.33005e-05
48 *281:143 *2925:A2 3.93346e-05
49 *281:143 *347:18 1.57523e-05
50 *2885:B1 *281:143 0.000177821
51 *2925:B1 *281:143 9.90367e-05
52 *2926:A *281:10 0.000158111
53 *2926:A *281:113 2.32517e-05
54 *2926:C *281:113 9.15842e-06
55 *2946:D *3183:CLK 0
56 *2952:A *281:72 0.000128154
57 *2988:A *3127:CLK 5.33005e-05
58 *3036:A *3183:CLK 0
59 *3042:A *3146:CLK 0.000112738
60 *3052:A *3159:CLK 4.1331e-06
61 *3084:A *3175:CLK 2.89114e-05
62 *3100:A *3183:CLK 1.02504e-05
63 *3115:D *3115:CLK 3.18676e-05
64 *3127:D *3127:CLK 5.33005e-05
65 *3146:D *281:10 0.000171375
66 *3146:D *281:23 9.25014e-06
67 *3151:D *3183:CLK 0
68 *3154:D *281:23 0.000120573
69 *3175:D *3175:CLK 2.89114e-05
70 *3178:D *3178:CLK 8.44175e-05
71 *3183:D *3183:CLK 5.52302e-05
72 *3186:D *3186:CLK 4.29561e-05
73 *163:20 *3159:CLK 0.000235355
74 *163:20 *281:113 0.000177948
75 *163:20 *281:115 0.000148911
76 *177:10 *281:113 0
77 *182:12 *3146:CLK 5.33334e-05
*RES
1 *3199:X *281:4 9.3 
2 *281:4 *281:10 19.0893 
3 *281:10 *3146:CLK 15.175 
4 *281:10 *281:23 4.67857 
5 *281:23 *3154:CLK 13.8 
6 *281:23 *281:32 2.85714 
7 *281:32 *281:38 22.6786 
8 *281:38 *281:44 11.1786 
9 *281:44 *3151:CLK 9.3 
10 *281:44 *3183:CLK 26.5679 
11 *281:38 *281:72 4.375 
12 *281:72 *3115:CLK 14.7464 
13 *281:72 *3178:CLK 17.8357 
14 *281:32 *3186:CLK 22.9964 
15 *281:4 *281:113 9.21429 
16 *281:113 *281:115 1.94643 
17 *281:115 *3159:CLK 19.4429 
18 *281:115 *3127:CLK 14.3357 
19 *281:113 *281:143 18.6071 
20 *281:143 *3175:CLK 21.3893 
21 *281:143 *3143:CLK 9.3 
*END

*D_NET *282 0.00162125
*CONN
*I *2887:A I *D sky130_fd_sc_hd__and3_1
*I *3212:A I *D sky130_fd_sc_hd__dlygate4sd3_1
*I *3123:Q O *D sky130_fd_sc_hd__dfrtp_1
*CAP
1 *2887:A 0.000515777
2 *3212:A 0
3 *3123:Q 0.000223379
4 *282:6 0.000739156
5 *2887:A *3202:A 0
6 *2887:A *343:10 9.15186e-06
7 *2887:A *343:37 0
8 *2887:A *344:49 0
9 *3016:A *2887:A 0.000133787
*RES
1 *3123:Q *282:6 12.7107 
2 *282:6 *3212:A 9.3 
3 *282:6 *2887:A 28.1929 
*END

*D_NET *283 0.00165102
*CONN
*I *3241:A I *D sky130_fd_sc_hd__dlygate4sd3_1
*I *2907:A I *D sky130_fd_sc_hd__and3_1
*I *3124:Q O *D sky130_fd_sc_hd__dfrtp_1
*CAP
1 *3241:A 0.000178233
2 *2907:A 0.000161191
3 *3124:Q 8.00031e-05
4 *283:8 0.000419427
5 *2907:A *2949:A 2.95642e-05
6 *2907:A *327:10 0
7 *3241:A *2949:A 0.000156816
8 *3241:A *327:10 0
9 *283:8 *2949:A 5.33005e-05
10 *283:8 *2949:B 6.50434e-05
11 *283:8 *429:18 0.000358965
12 *3016:A *3241:A 9.11365e-06
13 *3191:A *2907:A 0
14 *153:16 *2907:A 0
15 *153:16 *283:8 5.52238e-05
16 *163:24 *3241:A 5.52302e-05
17 *199:118 *3241:A 2.89114e-05
*RES
1 *3124:Q *283:8 17.2107 
2 *283:8 *2907:A 16.3536 
3 *283:8 *3241:A 17.3179 
*END

*D_NET *284 0.00252568
*CONN
*I *2927:A I *D sky130_fd_sc_hd__and3_1
*I *3220:A I *D sky130_fd_sc_hd__dlygate4sd3_1
*I *3125:Q O *D sky130_fd_sc_hd__dfrtp_1
*CAP
1 *2927:A 0.000527821
2 *3220:A 0.000186814
3 *3125:Q 0.000131627
4 *284:6 0.000846262
5 *2927:A *2980:A1 0.000228746
6 *2927:A *337:37 0.000285619
7 *3220:A *3176:RESET_B 3.34672e-05
8 *284:6 *337:37 9.7659e-05
9 *2917:A *3220:A 0
10 *2927:B *2927:A 0.000151924
11 *2962:A *3220:A 3.57366e-05
12 *207:137 *2927:A 0
13 *276:12 *3220:A 0
*RES
1 *3125:Q *284:6 11.0679 
2 *284:6 *3220:A 21.5857 
3 *284:6 *2927:A 27.3714 
*END

*D_NET *285 0.000646704
*CONN
*I *3209:A I *D sky130_fd_sc_hd__dlygate4sd3_1
*I *2947:A I *D sky130_fd_sc_hd__and3_1
*I *3126:Q O *D sky130_fd_sc_hd__dfrtp_1
*CAP
1 *3209:A 0.000137415
2 *2947:A 0
3 *3126:Q 5.59816e-05
4 *285:8 0.000193397
5 *3209:A *2929:A2 2.89114e-05
6 *3209:A *338:24 5.71472e-05
7 *285:8 *338:24 4.12451e-05
8 *2930:B1 *3209:A 5.52302e-05
9 *202:44 *3209:A 0
10 *206:59 *3209:A 7.73758e-05
*RES
1 *3126:Q *285:8 10.2643 
2 *285:8 *2947:A 9.3 
3 *285:8 *3209:A 21.3179 
*END

*D_NET *286 0.00242795
*CONN
*I *2884:B1 I *D sky130_fd_sc_hd__o21ai_1
*I *3225:A I *D sky130_fd_sc_hd__dlygate4sd3_1
*I *3159:Q O *D sky130_fd_sc_hd__dfrtp_1
*CAP
1 *2884:B1 0.000337664
2 *3225:A 0.000131848
3 *3159:Q 0
4 *286:6 0.000469511
5 *2884:B1 *3159:RESET_B 0.000364967
6 *2884:B1 *347:18 0
7 *3225:A *3051:A0 5.62995e-05
8 *3225:A *3159:RESET_B 3.34366e-05
9 *158:12 *2884:B1 0.000519278
10 *158:12 *3225:A 0.000249493
11 *184:20 *3225:A 9.90431e-05
12 *281:143 *2884:B1 0.000166407
*RES
1 *3159:Q *286:6 13.8 
2 *286:6 *3225:A 17.9071 
3 *286:6 *2884:B1 23.6036 
*END

*D_NET *287 0.00163924
*CONN
*I *2873:B1 I *D sky130_fd_sc_hd__o21ai_1
*I *3221:A I *D sky130_fd_sc_hd__dlygate4sd3_1
*I *3160:Q O *D sky130_fd_sc_hd__dfrtp_1
*CAP
1 *2873:B1 0.000382918
2 *3221:A 0
3 *3160:Q 5.71464e-05
4 *287:6 0.000440065
5 *2873:B1 *2873:A1 1.00332e-05
6 *2873:B1 *3160:RESET_B 5.20669e-05
7 *2873:B1 *424:49 9.83388e-05
8 *287:6 *3160:RESET_B 0.000174389
9 *2874:B1 *2873:B1 5.45307e-05
10 *2917:D *2873:B1 4.48647e-05
11 *2917:D *287:6 0.000174389
12 *128:14 *2873:B1 6.45575e-05
13 *194:93 *2873:B1 8.59404e-05
*RES
1 *3160:Q *287:6 12.3 
2 *287:6 *3221:A 9.3 
3 *287:6 *2873:B1 26.5679 
*END

*D_NET *288 0.00255087
*CONN
*I *2880:B1 I *D sky130_fd_sc_hd__o21ai_1
*I *3229:A I *D sky130_fd_sc_hd__dlygate4sd3_1
*I *3161:Q O *D sky130_fd_sc_hd__dfrtp_1
*CAP
1 *2880:B1 0.000743566
2 *3229:A 0.000221173
3 *3161:Q 0
4 *288:4 0.000964739
5 *2880:B1 *2900:B1 0.000212045
6 *2880:B1 *3205:A 0
7 *2880:B1 *296:10 5.03787e-05
8 *2880:B1 *425:20 0.000358971
9 *202:126 *2880:B1 0
*RES
1 *3161:Q *288:4 9.3 
2 *288:4 *3229:A 13.0321 
3 *288:4 *2880:B1 33.3714 
*END

*D_NET *289 0.00313419
*CONN
*I *3230:A I *D sky130_fd_sc_hd__dlygate4sd3_1
*I *2882:B1 I *D sky130_fd_sc_hd__o21ai_1
*I *3162:Q O *D sky130_fd_sc_hd__dfrtp_1
*CAP
1 *3230:A 0.000334549
2 *2882:B1 0.000605134
3 *3162:Q 0.000140415
4 *289:10 0.0010801
5 *2882:B1 *2882:A1 1.00477e-05
6 *2882:B1 *2902:B1 0.000363023
7 *3230:A *2902:B1 6.63383e-05
8 *3230:A *3057:A0 7.8327e-05
9 *3230:A *3186:RESET_B 0.000229772
10 *3230:A *3236:A 2.6949e-05
11 *3057:S *289:10 8.50504e-05
12 *3058:A *2882:B1 4.69852e-05
13 *156:16 *2882:B1 0
14 *175:12 *2882:B1 6.75007e-05
*RES
1 *3162:Q *289:10 16.4071 
2 *289:10 *2882:B1 27.8893 
3 *289:10 *3230:A 21.4964 
*END

*D_NET *290 0.00174777
*CONN
*I *3222:A I *D sky130_fd_sc_hd__dlygate4sd3_1
*I *2869:B1 I *D sky130_fd_sc_hd__o21ai_1
*I *3163:Q O *D sky130_fd_sc_hd__dfrtp_1
*CAP
1 *3222:A 0.000255705
2 *2869:B1 0.00045607
3 *3163:Q 0
4 *290:4 0.000711775
5 *2869:B1 *2889:B1 0.00012924
6 *2869:B1 *3059:A0 0
7 *2869:B1 *3059:A1 3.6337e-05
8 *2869:B1 *427:70 1.32056e-05
9 *2870:B1 *2869:B1 6.86699e-05
10 *277:79 *2869:B1 3.27526e-05
11 *277:90 *2869:B1 4.40153e-05
*RES
1 *3163:Q *290:4 9.3 
2 *290:4 *2869:B1 27.2821 
3 *290:4 *3222:A 13.4429 
*END

*D_NET *291 0.00327859
*CONN
*I *2871:B1 I *D sky130_fd_sc_hd__o21ai_1
*I *3226:A I *D sky130_fd_sc_hd__dlygate4sd3_1
*I *3164:Q O *D sky130_fd_sc_hd__dfrtp_1
*CAP
1 *2871:B1 0.000292148
2 *3226:A 0.000144651
3 *3164:Q 0.0001596
4 *291:10 0.000596399
5 *3226:A *3061:A0 0.00018077
6 *3226:A *3061:A1 0.000122159
7 *291:10 *3061:A0 0.000148903
8 *194:36 *3226:A 9.93135e-05
9 *198:19 *2871:B1 0.000200406
10 *198:19 *291:10 0.000171368
11 *198:142 *2871:B1 0.000361276
12 *202:106 *3226:A 0.000659769
13 *206:146 *291:10 0.00014183
*RES
1 *3164:Q *291:10 17.4071 
2 *291:10 *3226:A 20.5143 
3 *291:10 *2871:B1 20.9071 
*END

*D_NET *292 0.00313941
*CONN
*I *3235:A I *D sky130_fd_sc_hd__dlygate4sd3_1
*I *2878:B1 I *D sky130_fd_sc_hd__o21ai_1
*I *3165:Q O *D sky130_fd_sc_hd__dfrtp_1
*CAP
1 *3235:A 4.73303e-05
2 *2878:B1 0.000771767
3 *3165:Q 0.000214319
4 *292:8 0.00103342
5 *2878:B1 *2999:A0 0
6 *2878:B1 *3133:RESET_B 0
7 *2878:B1 *3165:RESET_B 0
8 *2878:B1 *327:27 0.000116891
9 *2878:B1 *335:12 0.000411553
10 *2878:B1 *342:71 0
11 *2878:B1 *397:10 7.74135e-05
12 *3235:A *319:33 0.000122101
13 *292:8 *3165:RESET_B 0
14 *292:8 *335:12 0.000117082
15 *3057:S *3235:A 0.000227539
*RES
1 *3165:Q *292:8 18.175 
2 *292:8 *2878:B1 30.925 
3 *292:8 *3235:A 15.9786 
*END

*D_NET *293 0.00225987
*CONN
*I *3217:A I *D sky130_fd_sc_hd__dlygate4sd3_1
*I *2875:B1 I *D sky130_fd_sc_hd__o21ai_1
*I *3166:Q O *D sky130_fd_sc_hd__dfrtp_1
*CAP
1 *3217:A 0.000218289
2 *2875:B1 0.000778228
3 *3166:Q 0
4 *293:4 0.000996517
5 *2875:B1 *3166:RESET_B 7.17832e-05
6 *3122:CLK *2875:B1 0.000122433
7 *278:115 *2875:B1 7.26242e-05
*RES
1 *3166:Q *293:4 9.3 
2 *293:4 *2875:B1 19.2107 
3 *293:4 *3217:A 13.0321 
*END

*D_NET *294 0.00249027
*CONN
*I *2904:B1 I *D sky130_fd_sc_hd__o21ai_1
*I *3216:A I *D sky130_fd_sc_hd__dlygate4sd3_1
*I *3167:Q O *D sky130_fd_sc_hd__dfrtp_1
*CAP
1 *2904:B1 0.000487473
2 *3216:A 0.000210544
3 *3167:Q 3.74301e-05
4 *294:6 0.000735447
5 *2904:B1 *3051:A0 2.89016e-05
6 *2904:B1 *3135:RESET_B 0.000101545
7 *2904:B1 *323:16 0.000234279
8 *2904:B1 *399:14 0
9 *3216:A *3167:RESET_B 5.52238e-05
10 *294:6 *3167:RESET_B 2.39329e-05
11 *184:20 *2904:B1 0.000575498
*RES
1 *3167:Q *294:6 9.83571 
2 *294:6 *3216:A 12.7464 
3 *294:6 *2904:B1 30.5679 
*END

*D_NET *295 0.000953091
*CONN
*I *3231:A I *D sky130_fd_sc_hd__dlygate4sd3_1
*I *2893:B1 I *D sky130_fd_sc_hd__o21ai_1
*I *3168:Q O *D sky130_fd_sc_hd__dfrtp_1
*CAP
1 *3231:A 5.29175e-05
2 *2893:B1 1.645e-05
3 *3168:Q 7.05997e-05
4 *295:10 0.000139967
5 *2893:B1 *2893:A2 9.90367e-05
6 *3231:A *2893:A2 0.000184745
7 *295:10 *2893:A1 3.71496e-05
8 *2894:B1 *3231:A 8.86413e-05
9 *2937:D *3231:A 2.28598e-05
10 *3006:A *2893:B1 9.90367e-05
11 *3006:A *3231:A 4.08637e-05
12 *3006:A *295:10 0.000100823
*RES
1 *3168:Q *295:10 19.9429 
2 *295:10 *2893:B1 10.2464 
3 *295:10 *3231:A 11.4786 
*END

*D_NET *296 0.00327672
*CONN
*I *2900:B1 I *D sky130_fd_sc_hd__o21ai_1
*I *3224:A I *D sky130_fd_sc_hd__dlygate4sd3_1
*I *3169:Q O *D sky130_fd_sc_hd__dfrtp_1
*CAP
1 *2900:B1 0.00106023
2 *3224:A 4.86603e-05
3 *3169:Q 0.000147095
4 *296:10 0.00125598
5 *2900:B1 *2900:A1 3.48252e-05
6 *2900:B1 *2991:A1 3.2033e-05
7 *2900:B1 *324:10 0
8 *2900:B1 *393:23 3.54498e-05
9 *3224:A *373:20 9.76689e-05
10 *296:10 *324:10 0
11 *2880:B1 *2900:B1 0.000212045
12 *2880:B1 *296:10 5.03787e-05
13 *2901:B1 *2900:B1 1.04182e-05
14 *3137:CLK *2900:B1 2.29781e-05
15 *3137:D *2900:B1 6.1602e-05
16 *202:126 *3224:A 9.76689e-05
17 *202:126 *296:10 5.33882e-05
18 *206:181 *296:10 5.62995e-05
*RES
1 *3169:Q *296:10 16.6929 
2 *296:10 *3224:A 15.5679 
3 *296:10 *2900:B1 31.6571 
*END

*D_NET *297 0.00548419
*CONN
*I *3236:A I *D sky130_fd_sc_hd__dlygate4sd3_1
*I *2902:B1 I *D sky130_fd_sc_hd__o21ai_1
*I *3170:Q O *D sky130_fd_sc_hd__dfrtp_1
*CAP
1 *3236:A 0.000372881
2 *2902:B1 0.00141548
3 *3170:Q 0
4 *297:6 0.00178836
5 *2902:B1 *3057:A1 7.83659e-05
6 *2902:B1 *324:31 0
7 *2902:B1 *426:23 1.99099e-05
8 *2902:B1 *426:38 4.8476e-05
9 *2902:B1 *426:59 0.000128635
10 *3236:A *3057:A0 0
11 *3236:A *3057:A1 1.02504e-05
12 *3236:A *3073:A0 7.83659e-05
13 *3236:A *384:10 0
14 *3236:A *389:28 0.000230482
15 *2882:B1 *2902:B1 0.000363023
16 *3089:S *3236:A 0.000230482
17 *3186:CLK *2902:B1 0
18 *3186:CLK *3236:A 0
19 *3199:A *2902:B1 0.00029486
20 *3230:A *2902:B1 6.63383e-05
21 *3230:A *3236:A 2.6949e-05
22 *120:18 *2902:B1 0
23 *124:16 *2902:B1 0.000161604
24 *175:12 *2902:B1 0.000126439
25 *273:114 *2902:B1 4.33002e-05
26 *281:10 *2902:B1 0
27 *281:23 *2902:B1 0
28 *281:32 *2902:B1 0
*RES
1 *3170:Q *297:6 13.8 
2 *297:6 *2902:B1 44.8893 
3 *297:6 *3236:A 22.2286 
*END

*D_NET *298 0.00465436
*CONN
*I *3234:A I *D sky130_fd_sc_hd__dlygate4sd3_1
*I *2889:B1 I *D sky130_fd_sc_hd__o21ai_1
*I *3171:Q O *D sky130_fd_sc_hd__dfrtp_1
*CAP
1 *3234:A 1.1624e-05
2 *2889:B1 0.00117743
3 *3171:Q 0.000262138
4 *298:10 0.00145119
5 *2889:B1 *3059:A0 0
6 *2889:B1 *3059:A1 7.83659e-05
7 *2889:B1 *342:56 0
8 *2889:B1 *342:98 0
9 *2889:B1 *427:44 0.000273702
10 *298:10 *3171:RESET_B 0.000228624
11 *298:10 *3189:RESET_B 0
12 *298:10 *389:28 3.69697e-05
13 *2869:B1 *2889:B1 0.00012924
14 *3157:D *2889:B1 0.000129868
15 *109:12 *2889:B1 0.000256074
16 *198:63 *3234:A 5.52238e-05
17 *206:96 *3234:A 5.52238e-05
18 *206:96 *298:10 0
19 *277:66 *2889:B1 0.000205849
20 *277:79 *2889:B1 0.000302844
*RES
1 *3171:Q *298:10 17.925 
2 *298:10 *2889:B1 41.3536 
3 *298:10 *3234:A 14.3357 
*END

*D_NET *299 0.0029718
*CONN
*I *3215:A I *D sky130_fd_sc_hd__dlygate4sd3_1
*I *2891:B1 I *D sky130_fd_sc_hd__o21ai_1
*I *3172:Q O *D sky130_fd_sc_hd__dfrtp_1
*CAP
1 *3215:A 0.000113684
2 *2891:B1 0.000919649
3 *3172:Q 0
4 *299:4 0.00103333
5 *2891:B1 *3172:RESET_B 0.000181919
6 *2891:B1 *390:26 1.9774e-05
7 *2891:B1 *404:12 0
8 *3215:A *3172:RESET_B 0.000188586
9 *3172:CLK *2891:B1 0
10 *194:20 *2891:B1 0.00038678
11 *275:47 *2891:B1 7.57709e-05
12 *275:47 *3215:A 5.23057e-05
13 *275:70 *2891:B1 0
*RES
1 *3172:Q *299:4 9.3 
2 *299:4 *2891:B1 35.6393 
3 *299:4 *3215:A 12.3 
*END

*D_NET *300 0.00672499
*CONN
*I *3237:A I *D sky130_fd_sc_hd__dlygate4sd3_1
*I *2898:B1 I *D sky130_fd_sc_hd__o21ai_1
*I *3173:Q O *D sky130_fd_sc_hd__dfrtp_1
*CAP
1 *3237:A 0.000420097
2 *2898:B1 0
3 *3173:Q 0.000111214
4 *300:16 0.000993525
5 *300:6 0.00152484
6 *300:6 *3173:RESET_B 1.91419e-05
7 *300:6 *3181:RESET_B 5.33334e-05
8 *300:16 *319:22 5.56413e-05
9 *3057:S *300:16 7.83587e-05
10 *3073:S *3237:A 0.000115507
11 *3096:A *300:16 8.1024e-05
12 *3173:D *3237:A 0.000106524
13 *3181:CLK *3237:A 6.28241e-05
14 *3181:CLK *300:6 8.10688e-05
15 *3181:CLK *300:16 0
16 *198:33 *300:16 0.00208203
17 *198:39 *300:16 0.00021775
18 *198:63 *300:6 0.000230475
19 *280:48 *300:16 0.000120369
20 *280:59 *300:16 5.75896e-05
21 *280:78 *300:16 0.000298632
22 *280:89 *300:16 1.50563e-05
*RES
1 *3173:Q *300:6 12.7107 
2 *300:6 *300:16 41.0536 
3 *300:16 *2898:B1 9.3 
4 *300:6 *3237:A 17.3714 
*END

*D_NET *301 0.00171604
*CONN
*I *3240:A I *D sky130_fd_sc_hd__dlygate4sd3_1
*I *2895:B1 I *D sky130_fd_sc_hd__o21ai_1
*I *3174:Q O *D sky130_fd_sc_hd__dfrtp_1
*CAP
1 *3240:A 5.47335e-05
2 *2895:B1 0.000245248
3 *3174:Q 0.000134516
4 *301:10 0.000434497
5 *2895:B1 *2895:A2 5.71472e-05
6 *207:39 *2895:B1 0.000660181
7 *207:39 *3240:A 0.00012972
*RES
1 *3174:Q *301:10 20.2464 
2 *301:10 *2895:B1 15.5857 
3 *301:10 *3240:A 10.6571 
*END

*D_NET *302 0.00227157
*CONN
*I *3244:A I *D sky130_fd_sc_hd__dlygate4sd3_1
*I *2924:B1 I *D sky130_fd_sc_hd__o21ai_1
*I *3175:Q O *D sky130_fd_sc_hd__dfrtp_1
*CAP
1 *3244:A 0.000358353
2 *2924:B1 0.000343796
3 *3175:Q 0
4 *302:4 0.000702148
5 *2924:B1 *3207:A 0.000245184
6 *2924:B1 *323:16 9.72343e-05
7 *2924:B1 *347:52 0.000151333
8 *2924:B1 *347:72 5.56241e-05
9 *2924:B1 *407:14 0.000264603
10 *3244:A *348:18 5.33005e-05
*RES
1 *3175:Q *302:4 9.3 
2 *302:4 *2924:B1 26.3714 
3 *302:4 *3244:A 22.9429 
*END

*D_NET *303 0.00184179
*CONN
*I *3243:A I *D sky130_fd_sc_hd__dlygate4sd3_1
*I *2913:B1 I *D sky130_fd_sc_hd__o21ai_1
*I *3176:Q O *D sky130_fd_sc_hd__dfrtp_1
*CAP
1 *3243:A 5.20787e-05
2 *2913:B1 0.000180321
3 *3176:Q 0.000115368
4 *303:8 0.000347769
5 *2913:B1 *2913:A2 5.52302e-05
6 *2913:B1 *2914:A1 5.33005e-05
7 *2913:B1 *362:24 0.000248694
8 *2913:B1 *424:107 3.17148e-05
9 *303:8 *362:16 4.53889e-05
10 *2917:C *2913:B1 7.83659e-05
11 *2927:B *2913:B1 2.6949e-05
12 *2927:B *3243:A 4.25716e-05
13 *207:137 *2913:B1 0.00044756
14 *207:137 *3243:A 0.000116474
*RES
1 *3176:Q *303:8 15.1571 
2 *303:8 *2913:B1 20.8893 
3 *303:8 *3243:A 15.4429 
*END

*D_NET *304 0.00294165
*CONN
*I *2920:B1 I *D sky130_fd_sc_hd__o21ai_1
*I *3223:A I *D sky130_fd_sc_hd__dlygate4sd3_1
*I *3177:Q O *D sky130_fd_sc_hd__dfrtp_1
*CAP
1 *2920:B1 0.000508362
2 *3223:A 0
3 *3177:Q 0.000589224
4 *304:10 0.00109759
5 *2920:B1 *2940:B1 0
6 *2920:B1 *3103:A0 0
7 *2920:B1 *417:14 2.83425e-05
8 *304:10 *2940:B1 0
9 *304:10 *3087:A0 0
10 *304:10 *3103:A0 0
11 *304:10 *3177:RESET_B 0
12 *304:10 *312:10 0
13 *2941:B1 *2920:B1 0.000200983
14 *3088:A *304:10 0
15 *3145:CLK *2920:B1 8.61447e-05
16 *3153:CLK *2920:B1 0.000175657
17 *3177:CLK *304:10 0.000141326
18 *206:181 *304:10 6.42338e-05
19 *279:112 *2920:B1 4.97967e-05
*RES
1 *3177:Q *304:10 24.925 
2 *304:10 *3223:A 13.8 
3 *304:10 *2920:B1 24.8893 
*END

*D_NET *305 0.00343472
*CONN
*I *3233:A I *D sky130_fd_sc_hd__dlygate4sd3_1
*I *2922:B1 I *D sky130_fd_sc_hd__o21ai_1
*I *3178:Q O *D sky130_fd_sc_hd__dfrtp_1
*CAP
1 *3233:A 0.000512943
2 *2922:B1 0.000550396
3 *3178:Q 0.000105373
4 *305:8 0.00116871
5 *2922:B1 *2922:A2 0.000144773
6 *2922:B1 *2942:B1 0.000390766
7 *2922:B1 *3105:A1 0
8 *2922:B1 *3186:RESET_B 0
9 *2922:B1 *313:8 4.06782e-05
10 *2922:B1 *320:8 0
11 *3233:A *3089:A1 0
12 *3233:A *3105:A1 0
13 *3233:A *320:8 0
14 *3233:A *389:18 0.000183331
15 *305:8 *384:40 5.05484e-05
16 *2946:A *2922:B1 5.86416e-05
17 *3089:S *3233:A 0.000228558
18 *3090:A *2922:B1 0
19 *3090:A *3233:A 0
20 *3105:S *3233:A 0
*RES
1 *3178:Q *305:8 15.5679 
2 *305:8 *2922:B1 26.8179 
3 *305:8 *3233:A 23.5679 
*END

*D_NET *306 0.00351551
*CONN
*I *3238:A I *D sky130_fd_sc_hd__dlygate4sd3_1
*I *2909:B1 I *D sky130_fd_sc_hd__o21ai_1
*I *3179:Q O *D sky130_fd_sc_hd__dfrtp_1
*CAP
1 *3238:A 0.000226708
2 *2909:B1 0.00118451
3 *3179:Q 0
4 *306:4 0.00141122
5 *2909:B1 *3043:A1 2.37761e-05
6 *2909:B1 *338:24 3.92757e-05
7 *3047:S *2909:B1 0
8 *3179:CLK *2909:B1 2.89114e-05
9 *3179:D *2909:B1 5.71472e-05
10 *207:149 *2909:B1 0
11 *276:70 *2909:B1 0
12 *276:86 *2909:B1 0.000164087
13 *276:99 *2909:B1 0.000379873
*RES
1 *3179:Q *306:4 9.3 
2 *306:4 *2909:B1 38.3 
3 *306:4 *3238:A 13.0321 
*END

*D_NET *307 0.00325155
*CONN
*I *2911:B1 I *D sky130_fd_sc_hd__o21ai_1
*I *3211:A I *D sky130_fd_sc_hd__dlygate4sd3_1
*I *3180:Q O *D sky130_fd_sc_hd__dfrtp_1
*CAP
1 *2911:B1 0.000390751
2 *3211:A 0.000420629
3 *3180:Q 0.000132421
4 *307:10 0.000943801
5 *2911:B1 *325:10 0
6 *2911:B1 *339:38 0
7 *2911:B1 *339:54 0.000168698
8 *2911:B1 *339:56 0.000559259
9 *3211:A *3093:A0 4.88637e-05
10 *307:10 *3180:RESET_B 1.40306e-05
11 *307:10 *325:10 0
12 *307:10 *339:56 0.000125731
13 *3045:S *2911:B1 0
14 *3093:S *3211:A 0.000398573
15 *3094:A *3211:A 4.87953e-05
16 *3180:D *307:10 0
*RES
1 *3180:Q *307:10 15.9786 
2 *307:10 *3211:A 21.7643 
3 *307:10 *2911:B1 23.6393 
*END

*D_NET *308 0.00298876
*CONN
*I *3232:A I *D sky130_fd_sc_hd__dlygate4sd3_1
*I *2918:B1 I *D sky130_fd_sc_hd__o21ai_1
*I *3181:Q O *D sky130_fd_sc_hd__dfrtp_1
*CAP
1 *3232:A 0.000382055
2 *2918:B1 0.000814387
3 *3181:Q 0
4 *308:6 0.00119644
5 *2918:B1 *335:12 0
6 *2918:B1 *348:104 8.50795e-06
7 *2918:B1 *427:28 7.50601e-05
8 *3232:A *335:12 0
9 *3232:A *348:104 2.19684e-05
10 *3096:A *2918:B1 0
11 *3096:A *3232:A 0
12 *3149:CLK *2918:B1 0.00010096
13 *3181:D *2918:B1 7.83587e-05
14 *182:12 *2918:B1 3.67257e-05
15 *198:33 *2918:B1 0
16 *198:39 *2918:B1 0
17 *198:63 *2918:B1 0
18 *206:108 *3232:A 0.000274294
*RES
1 *3181:Q *308:6 13.8 
2 *308:6 *2918:B1 29.4429 
3 *308:6 *3232:A 21.3714 
*END

*D_NET *309 0.00324773
*CONN
*I *2915:B1 I *D sky130_fd_sc_hd__o21ai_1
*I *3214:A I *D sky130_fd_sc_hd__dlygate4sd3_1
*I *3182:Q O *D sky130_fd_sc_hd__dfrtp_1
*CAP
1 *2915:B1 0.000826524
2 *3214:A 0.000234188
3 *3182:Q 0
4 *309:4 0.00106071
5 *2915:B1 *3097:A0 1.17968e-05
6 *2915:B1 *3228:A 4.75812e-05
7 *2915:B1 *336:10 0.000260876
8 *2916:B1 *2915:B1 5.30637e-06
9 *3114:A *2915:B1 7.83659e-05
10 *198:33 *2915:B1 0
11 *206:146 *2915:B1 0.000127446
12 *278:16 *2915:B1 0.000367396
13 *278:20 *2915:B1 0
14 *278:28 *2915:B1 0
15 *278:28 *3214:A 0.000227532
*RES
1 *3182:Q *309:4 9.3 
2 *309:4 *3214:A 13.5679 
3 *309:4 *2915:B1 35.9429 
*END

*D_NET *310 0.00125641
*CONN
*I *2944:B1 I *D sky130_fd_sc_hd__o21ai_1
*I *3242:A I *D sky130_fd_sc_hd__dlygate4sd3_1
*I *3183:Q O *D sky130_fd_sc_hd__dfrtp_1
*CAP
1 *2944:B1 0.000294096
2 *3242:A 0.000207497
3 *3183:Q 0
4 *310:4 0.000501593
5 *2944:B1 *323:8 5.33005e-05
6 *2944:B1 *323:16 0.000126439
7 *3242:A *347:72 7.34868e-05
*RES
1 *3183:Q *310:4 9.3 
2 *310:4 *3242:A 13.0321 
3 *310:4 *2944:B1 23.6571 
*END

*D_NET *311 0.00188291
*CONN
*I *3239:A I *D sky130_fd_sc_hd__dlygate4sd3_1
*I *2933:B1 I *D sky130_fd_sc_hd__o21ai_1
*I *3184:Q O *D sky130_fd_sc_hd__dfrtp_1
*CAP
1 *3239:A 0.000185734
2 *2933:B1 0.000161187
3 *3184:Q 0.000114673
4 *311:8 0.000461594
5 *2933:B1 *2933:A2 1.60322e-05
6 *2933:B1 *424:90 5.52238e-05
7 *2933:B1 *428:27 0
8 *3239:A *3101:A0 5.33005e-05
9 *3239:A *322:28 0.000310292
10 *2934:B1 *2933:B1 1.32293e-05
11 *2937:A *311:8 5.49489e-05
12 *2937:B *2933:B1 0.000192662
13 *149:12 *2933:B1 9.32736e-05
14 *149:12 *3239:A 3.75052e-05
15 *166:8 *2933:B1 9.25014e-06
16 *166:8 *3239:A 0.00012401
*RES
1 *3184:Q *311:8 15.1571 
2 *311:8 *2933:B1 18.1571 
3 *311:8 *3239:A 18.4429 
*END

*D_NET *312 0.00213024
*CONN
*I *3219:A I *D sky130_fd_sc_hd__dlygate4sd3_1
*I *2940:B1 I *D sky130_fd_sc_hd__o21ai_1
*I *3185:Q O *D sky130_fd_sc_hd__dfrtp_1
*CAP
1 *3219:A 9.26016e-05
2 *2940:B1 0.000470585
3 *3185:Q 0.000228876
4 *312:10 0.000792062
5 *2940:B1 *2921:A2 3.67279e-06
6 *2940:B1 *2941:A2 2.50593e-05
7 *2940:B1 *3103:A0 5.52302e-05
8 *2940:B1 *346:41 0
9 *2940:B1 *346:67 0
10 *2940:B1 *425:20 2.86477e-05
11 *312:10 *3087:A0 3.92854e-05
12 *312:10 *346:41 0
13 *2920:B1 *2940:B1 0
14 *3088:A *312:10 8.00806e-05
15 *3145:CLK *2940:B1 0
16 *207:39 *2940:B1 9.90367e-05
17 *207:39 *3219:A 0.000215102
18 *304:10 *2940:B1 0
19 *304:10 *312:10 0
*RES
1 *3185:Q *312:10 22.675 
2 *312:10 *2940:B1 26.3536 
3 *312:10 *3219:A 11.4786 
*END

*D_NET *313 0.00334341
*CONN
*I *3218:A I *D sky130_fd_sc_hd__dlygate4sd3_1
*I *2942:B1 I *D sky130_fd_sc_hd__o21ai_1
*I *3186:Q O *D sky130_fd_sc_hd__dfrtp_1
*CAP
1 *3218:A 0.000184661
2 *2942:B1 0.00039556
3 *3186:Q 4.75219e-05
4 *313:8 0.000627742
5 *2942:B1 *2922:A2 7.03295e-05
6 *2942:B1 *2942:A1 2.59355e-05
7 *2942:B1 *2942:A2 0.000443648
8 *2942:B1 *3041:A0 7.43578e-06
9 *2942:B1 *3105:A1 1.02504e-05
10 *2942:B1 *3146:RESET_B 5.08385e-05
11 *2942:B1 *3178:RESET_B 0.000192659
12 *2942:B1 *347:97 0.000105347
13 *2942:B1 *418:12 7.83659e-05
14 *3218:A *3105:A0 0.000227539
15 *313:8 *3105:A1 0.000127439
16 *2922:B1 *2942:B1 0.000390766
17 *2922:B1 *313:8 4.06782e-05
18 *2943:B1 *2942:B1 3.45483e-05
19 *2946:A *2942:B1 9.91086e-05
20 *3106:A *3218:A 0
21 *3178:D *3218:A 0.000183035
*RES
1 *3186:Q *313:8 15.4429 
2 *313:8 *2942:B1 27.9964 
3 *313:8 *3218:A 18.8714 
*END

*D_NET *314 0.00211286
*CONN
*I *3210:A I *D sky130_fd_sc_hd__dlygate4sd3_1
*I *2929:B1 I *D sky130_fd_sc_hd__o21ai_1
*I *3187:Q O *D sky130_fd_sc_hd__dfrtp_1
*CAP
1 *3210:A 0.000190175
2 *2929:B1 0.000647787
3 *3187:Q 9.52123e-05
4 *314:8 0.000933174
5 *2929:B1 *2929:A1 4.03318e-05
6 *3210:A *3107:A1 5.33433e-05
7 *3092:A *314:8 5.37963e-05
8 *202:44 *2929:B1 0
9 *202:44 *3210:A 0
10 *202:71 *3210:A 0
11 *206:59 *2929:B1 0
12 *206:59 *3210:A 0
13 *206:96 *3210:A 9.90431e-05
*RES
1 *3187:Q *314:8 15.5679 
2 *314:8 *2929:B1 25.4607 
3 *314:8 *3210:A 17.6036 
*END

*D_NET *315 0.0021301
*CONN
*I *2931:B1 I *D sky130_fd_sc_hd__o21ai_1
*I *3213:A I *D sky130_fd_sc_hd__dlygate4sd3_1
*I *3188:Q O *D sky130_fd_sc_hd__dfrtp_1
*CAP
1 *2931:B1 0.000564936
2 *3213:A 5.97593e-05
3 *3188:Q 0.000132654
4 *315:8 0.00075735
5 *2931:B1 *2931:A1 1.19402e-05
6 *2931:B1 *3093:A1 8.359e-05
7 *3213:A *3109:A0 5.33433e-05
8 *3046:A *2931:B1 0
9 *3109:S *3213:A 0.000230482
10 *3110:A *3213:A 0.000104611
11 *3188:D *315:8 0
12 *206:8 *3213:A 0.000131439
13 *206:29 *2931:B1 0
*RES
1 *3188:Q *315:8 15.7464 
2 *315:8 *3213:A 17.2107 
3 *315:8 *2931:B1 23.6393 
*END

*D_NET *316 0.00328003
*CONN
*I *3227:A I *D sky130_fd_sc_hd__dlygate4sd3_1
*I *2938:B1 I *D sky130_fd_sc_hd__o21ai_1
*I *3189:Q O *D sky130_fd_sc_hd__dfrtp_1
*CAP
1 *3227:A 0.00017612
2 *2938:B1 0.000604487
3 *3189:Q 0.000186474
4 *316:8 0.000967081
5 *2938:B1 *2938:A1 7.07672e-05
6 *2938:B1 *2938:A2 5.52238e-05
7 *2938:B1 *3111:A0 0.000196269
8 *2938:B1 *3111:A1 0.00022287
9 *2938:B1 *3165:RESET_B 0
10 *2938:B1 *342:69 1.21258e-05
11 *2938:B1 *342:71 0
12 *2938:B1 *344:49 0
13 *3227:A *3111:A0 7.83659e-05
14 *3112:A *3227:A 0
15 *3165:D *2938:B1 0.000143362
16 *194:125 *2938:B1 0
17 *202:71 *316:8 0.00010096
18 *202:73 *316:8 9.02232e-05
19 *206:104 *2938:B1 3.47468e-05
20 *206:104 *3227:A 2.28428e-05
21 *206:108 *3227:A 0.000318107
*RES
1 *3189:Q *316:8 16.3893 
2 *316:8 *2938:B1 27.5143 
3 *316:8 *3227:A 18.4429 
*END

*D_NET *317 0.00496775
*CONN
*I *3228:A I *D sky130_fd_sc_hd__dlygate4sd3_1
*I *2935:B1 I *D sky130_fd_sc_hd__o21ai_1
*I *3190:Q O *D sky130_fd_sc_hd__dfrtp_1
*CAP
1 *3228:A 0.000285871
2 *2935:B1 0.000989893
3 *3190:Q 3.76456e-05
4 *317:6 0.00131341
5 *2935:B1 *2935:A1 7.79781e-06
6 *2935:B1 *327:10 0
7 *2935:B1 *345:106 0.000118604
8 *2935:B1 *422:12 0.000167266
9 *3228:A *3097:A0 0.000181803
10 *3228:A *3097:A1 0.000271352
11 *3228:A *3113:A0 0.000229456
12 *3228:A *320:31 0.000432243
13 *3228:A *336:10 0.000360116
14 *317:6 *345:106 1.74352e-05
15 *2915:B1 *3228:A 4.75812e-05
16 *3114:A *3228:A 7.83659e-05
17 *3182:D *2935:B1 0.000173097
18 *3190:D *2935:B1 0
19 *194:36 *2935:B1 2.38671e-05
20 *206:146 *3228:A 4.38604e-05
21 *206:150 *3228:A 1.02936e-05
22 *206:181 *3228:A 0.00017779
*RES
1 *3190:Q *317:6 9.83571 
2 *317:6 *2935:B1 35.0143 
3 *317:6 *3228:A 30.1036 
*END

*D_NET *318 0.0218879
*CONN
*I *2985:A1 I *D sky130_fd_sc_hd__mux2_1
*I *2975:A1 I *D sky130_fd_sc_hd__mux2_1
*I *2970:A0 I *D sky130_fd_sc_hd__mux2_1
*I *2980:A1 I *D sky130_fd_sc_hd__mux2_1
*I *3245:X O *D sky130_fd_sc_hd__clkbuf_2
*CAP
1 *2985:A1 0
2 *2975:A1 0.000457266
3 *2970:A0 0
4 *2980:A1 0.00127079
5 *3245:X 0
6 *318:55 0.00198333
7 *318:28 0.00313581
8 *318:24 0.00265264
9 *318:14 0.00392151
10 *318:6 0.00160783
11 *2975:A1 *2970:A1 0.000245773
12 *2975:A1 *338:49 0
13 *2975:A1 *344:37 0
14 *2980:A1 *2961:A1 5.80706e-06
15 *2980:A1 *2961:S 2.59355e-05
16 *2980:A1 *2980:A0 6.86693e-05
17 *318:14 *338:32 0.00296016
18 *318:14 *362:8 0
19 *318:24 *2985:A0 4.56735e-05
20 *318:24 *3027:A0 0.000189855
21 *318:24 *325:41 0.000526001
22 *318:24 *427:96 9.22371e-05
23 *318:28 *343:113 0.000340227
24 *318:28 *427:96 9.15842e-06
25 *318:55 *3139:RESET_B 2.00884e-05
26 *318:55 *343:37 0.0003004
27 *318:55 *343:57 7.5812e-05
28 *2910:B1 *318:24 2.28499e-05
29 *2927:A *2980:A1 0.000228746
30 *2927:B *2980:A1 1.5286e-05
31 *2970:S *2975:A1 4.88637e-05
32 *2970:S *318:55 1.24368e-05
33 *2971:A *318:55 6.21846e-05
34 *2980:S *2980:A1 8.25843e-06
35 *2985:S *318:24 0.000374704
36 *3028:A *318:24 5.62995e-05
37 *3120:D *2980:A1 0
38 *3123:D *318:55 5.52238e-05
39 *3139:CLK *2980:A1 5.72869e-05
40 *3139:CLK *318:55 0.000146321
41 *3147:D *318:24 0.000144773
42 *3245:A *318:14 0
43 *166:8 *2980:A1 0.000505335
44 *173:10 *318:24 0
45 *173:10 *318:28 0
46 *195:115 *2975:A1 0
47 *207:137 *2980:A1 0
48 *207:137 *318:24 9.60939e-05
49 *273:50 *2980:A1 0.000118315
*RES
1 *3245:X *318:6 13.8 
2 *318:6 *318:14 46.875 
3 *318:14 *318:24 45.3214 
4 *318:24 *318:28 12.8214 
5 *318:28 *2980:A1 36.55 
6 *318:28 *318:55 23.3214 
7 *318:55 *2970:A0 9.3 
8 *318:55 *2975:A1 27.0857 
9 *318:24 *2985:A1 13.8 
*END

*D_NET *319 0.015232
*CONN
*I *3095:A1 I *D sky130_fd_sc_hd__mux2_1
*I *3063:A0 I *D sky130_fd_sc_hd__mux2_1
*I *3111:A1 I *D sky130_fd_sc_hd__mux2_1
*I *3079:A1 I *D sky130_fd_sc_hd__mux2_1
*I *3246:X O *D sky130_fd_sc_hd__clkbuf_2
*CAP
1 *3095:A1 0
2 *3063:A0 7.45833e-06
3 *3111:A1 0.000360937
4 *3079:A1 0
5 *3246:X 0.00103706
6 *319:33 0.000960972
7 *319:22 0.000790438
8 *319:16 0.000356108
9 *319:12 0.00298745
10 *319:10 0.00386626
11 *3111:A1 *3111:A0 0.000110029
12 *3111:A1 *3165:RESET_B 0
13 *319:10 *331:10 0.000539608
14 *319:16 *3095:A0 0.000150625
15 *319:22 *3079:A0 7.43578e-06
16 *2938:B1 *3111:A1 0.00022287
17 *3057:S *319:33 0.000127031
18 *3063:S *3063:A0 1.97695e-05
19 *3063:S *319:33 5.7661e-06
20 *3064:A *3063:A0 0
21 *3064:A *3111:A1 0.000104956
22 *3073:S *319:22 1.95646e-05
23 *3073:S *319:33 3.3495e-05
24 *3096:A *319:22 0
25 *3096:A *319:33 0.000122159
26 *3173:D *319:16 0
27 *3173:D *319:22 0
28 *3181:CLK *319:22 0.0002452
29 *3235:A *319:33 0.000122101
30 *3258:A *319:10 1.78393e-05
31 *194:125 *3111:A1 8.07313e-05
32 *194:125 *319:33 2.95726e-05
33 *198:63 *3111:A1 0.000153398
34 *198:63 *319:33 9.41642e-05
35 *198:70 *319:33 5.33005e-05
36 *206:96 *3111:A1 5.33005e-05
37 *206:108 *319:12 0.00249671
38 *300:16 *319:22 5.56413e-05
*RES
1 *3246:X *319:10 39.9786 
2 *319:10 *319:12 56.8036 
3 *319:12 *319:16 7.66071 
4 *319:16 *319:22 9.10714 
5 *319:22 *3079:A1 9.3 
6 *319:22 *319:33 11.25 
7 *319:33 *3111:A1 26.7643 
8 *319:33 *3063:A0 9.72857 
9 *319:16 *3095:A1 13.8 
*END

*D_NET *320 0.0179341
*CONN
*I *3081:A1 I *D sky130_fd_sc_hd__mux2_1
*I *3113:A1 I *D sky130_fd_sc_hd__mux2_1
*I *3097:A1 I *D sky130_fd_sc_hd__mux2_1
*I *3065:A0 I *D sky130_fd_sc_hd__mux2_1
*I *3247:X O *D sky130_fd_sc_hd__clkbuf_2
*CAP
1 *3081:A1 0.000153254
2 *3113:A1 0
3 *3097:A1 0.000271527
4 *3065:A0 0.000196277
5 *3247:X 0
6 *320:31 0.000603126
7 *320:25 0.00150804
8 *320:14 0.00212682
9 *320:8 0.00516309
10 *320:6 0.00425574
11 *3065:A0 *3065:A1 0.000141036
12 *3097:A1 *3097:A0 6.71657e-05
13 *320:8 *3186:RESET_B 0.000275101
14 *320:8 *324:10 0
15 *320:8 *324:31 0
16 *320:8 *426:81 8.82684e-05
17 *320:8 *426:90 9.95914e-05
18 *320:8 *426:109 0.000123688
19 *320:14 *2881:A1 0.000224575
20 *320:14 *2881:A2 1.98839e-05
21 *320:14 *425:49 8.86844e-05
22 *320:25 *3017:A1 0.0001142
23 *320:25 *3081:A0 0
24 *320:25 *328:14 0.000414162
25 *320:25 *345:106 0.000125665
26 *320:25 *406:25 6.93626e-06
27 *320:31 *328:14 3.92854e-05
28 *320:31 *345:106 3.69697e-05
29 *2881:B1 *320:14 9.58632e-05
30 *2922:B1 *320:8 0
31 *2954:A *320:8 0
32 *2956:A *320:8 0
33 *3052:A *320:8 0
34 *3071:S *320:25 7.83659e-05
35 *3090:A *320:8 0
36 *3116:D *320:8 0
37 *3138:CLK *320:8 0
38 *3146:D *320:8 2.05938e-05
39 *3154:D *320:8 0.000437227
40 *3159:CLK *320:8 0
41 *3186:CLK *320:8 0
42 *3186:D *320:8 3.92757e-05
43 *3228:A *3097:A1 0.000271352
44 *3228:A *320:31 0.000432243
45 *3233:A *320:8 0
46 *120:18 *320:14 1.04766e-05
47 *194:82 *3065:A0 2.38501e-05
48 *199:80 *320:8 0.000154486
49 *278:50 *3081:A1 0.000227263
50 *279:16 *320:8 0
51 *279:22 *320:8 0
52 *279:52 *320:8 0
53 *281:10 *320:8 0
54 *281:23 *320:8 0
55 *281:32 *320:8 0
56 *281:113 *320:8 0
57 *281:115 *320:8 0
*RES
1 *3247:X *320:6 13.8 
2 *320:6 *320:8 79.6607 
3 *320:8 *320:14 19.8393 
4 *320:14 *3065:A0 12.7107 
5 *320:14 *320:25 24.3571 
6 *320:25 *320:31 9.76786 
7 *320:31 *3097:A1 13.1214 
8 *320:31 *3113:A1 9.3 
9 *320:25 *3081:A1 15.9786 
*END

*D_NET *321 0.0142089
*CONN
*I *3035:A1 I *D sky130_fd_sc_hd__mux2_1
*I *3019:A1 I *D sky130_fd_sc_hd__mux2_1
*I *2987:A0 I *D sky130_fd_sc_hd__mux2_1
*I *3003:A1 I *D sky130_fd_sc_hd__mux2_1
*I *3248:X O *D sky130_fd_sc_hd__clkbuf_2
*CAP
1 *3035:A1 0
2 *3019:A1 0.000132812
3 *2987:A0 0.000627096
4 *3003:A1 0.000279066
5 *3248:X 0.0014612
6 *321:14 0.00106515
7 *321:12 0.000914225
8 *321:10 0.00275397
9 *321:8 0.00359275
10 *2987:A0 *2987:A1 5.71472e-05
11 *3003:A1 *2904:A2 0.000149911
12 *3003:A1 *351:25 1.08359e-05
13 *3003:A1 *351:38 5.72222e-05
14 *3003:A1 *399:16 9.90367e-05
15 *3003:A1 *423:39 0
16 *321:10 *3115:RESET_B 0
17 *321:10 *347:80 0.000214335
18 *321:10 *347:91 0.000177941
19 *321:10 *389:10 0
20 *321:10 *415:12 0
21 *321:10 *423:8 0
22 *321:10 *423:14 0
23 *321:12 *347:80 0.000147474
24 *321:12 *423:29 0
25 *321:14 *423:31 0
26 *321:14 *423:39 0
27 *2905:B1 *3003:A1 0.000133596
28 *2925:B1 *3019:A1 0.00018077
29 *3041:S *321:10 4.56437e-05
30 *3084:A *321:12 7.89362e-05
31 *3143:D *321:12 9.15804e-05
32 *3143:D *321:14 9.25014e-06
33 *3175:CLK *321:12 0
34 *3266:A *321:8 3.46363e-05
35 *207:64 *3003:A1 0
36 *207:66 *3003:A1 0.000320738
37 *207:66 *321:12 0.00090862
38 *207:66 *321:14 0.00027338
39 *207:77 *321:10 1.02504e-05
40 *207:77 *321:12 0.000381318
*RES
1 *3248:X *321:8 30.7643 
2 *321:8 *321:10 40.5 
3 *321:10 *321:12 16.5179 
4 *321:12 *321:14 3.46429 
5 *321:14 *3003:A1 21.55 
6 *321:14 *2987:A0 23.7821 
7 *321:12 *3019:A1 15.5679 
8 *321:10 *3035:A1 13.8 
*END

*D_NET *322 0.0123697
*CONN
*I *3021:A1 I *D sky130_fd_sc_hd__mux2_1
*I *3037:A1 I *D sky130_fd_sc_hd__mux2_1
*I *2989:A0 I *D sky130_fd_sc_hd__mux2_1
*I *3005:A1 I *D sky130_fd_sc_hd__mux2_1
*I *3249:X O *D sky130_fd_sc_hd__buf_1
*CAP
1 *3021:A1 0.000170981
2 *3037:A1 0
3 *2989:A0 0.000101952
4 *3005:A1 0.000305487
5 *3249:X 0.00232174
6 *322:28 0.00113085
7 *322:16 0.00106993
8 *322:10 0.00283923
9 *2989:A0 *392:12 4.87953e-05
10 *2989:A0 *392:27 3.1367e-05
11 *3005:A1 *2893:A2 3.57844e-05
12 *3005:A1 *3069:A0 0
13 *3005:A1 *392:12 0
14 *3005:A1 *424:49 0
15 *3021:A1 *408:10 0.000129868
16 *322:16 *3037:A0 2.14757e-05
17 *322:16 *3144:RESET_B 0.000304752
18 *322:16 *408:10 7.77652e-05
19 *322:28 *3037:A0 9.90367e-05
20 *322:28 *3053:A0 4.14279e-05
21 *322:28 *3069:A1 1.04232e-05
22 *322:28 *3101:A0 0.000156703
23 *322:28 *362:24 5.52238e-05
24 *322:28 *362:33 0.00116302
25 *2894:B1 *3005:A1 0.000147913
26 *2989:S *2989:A0 9.87672e-05
27 *3005:S *3005:A1 7.75718e-05
28 *3022:A *3021:A1 3.99614e-06
29 *3037:S *322:28 0.000230475
30 *3069:S *2989:A0 0.000180547
31 *3069:S *322:28 0.000318101
32 *3070:A *322:28 0.00010096
33 *3102:A *322:28 1.74352e-05
34 *3144:CLK *322:10 0.000585759
35 *3168:D *322:28 5.41609e-05
36 *3239:A *322:28 0.000310292
37 *203:14 *3021:A1 0
38 *203:14 *322:10 0
39 *274:77 *322:10 0.000127931
*RES
1 *3249:X *322:10 45.9607 
2 *322:10 *322:16 12.0357 
3 *322:16 *322:28 21.375 
4 *322:28 *3005:A1 23.8893 
5 *322:28 *2989:A0 12.3 
6 *322:16 *3037:A1 9.3 
7 *322:10 *3021:A1 17.1214 
*END

*D_NET *323 0.0126537
*CONN
*I *3023:A1 I *D sky130_fd_sc_hd__mux2_1
*I *3039:A1 I *D sky130_fd_sc_hd__mux2_1
*I *2991:A0 I *D sky130_fd_sc_hd__mux2_1
*I *3007:A1 I *D sky130_fd_sc_hd__mux2_1
*I *3250:X O *D sky130_fd_sc_hd__dlymetal6s2s_1
*CAP
1 *3023:A1 1.97574e-05
2 *3039:A1 0
3 *2991:A0 0
4 *3007:A1 0.000289074
5 *3250:X 0.000841702
6 *323:32 0.000904358
7 *323:26 0.00088008
8 *323:22 0.000765432
9 *323:16 0.00241352
10 *323:8 0.00277435
11 *323:16 *3135:RESET_B 0.000148911
12 *323:16 *3143:RESET_B 7.68283e-05
13 *323:16 *333:57 0
14 *323:16 *346:111 0.000923732
15 *323:16 *347:52 0.000151333
16 *323:16 *347:72 0.00073318
17 *323:16 *407:14 8.00806e-05
18 *323:22 *3023:A0 8.25843e-06
19 *323:26 *3023:A0 1.29901e-05
20 *323:32 *2920:A1 1.47872e-05
21 *323:32 *2921:A2 2.38501e-05
22 *323:32 *2941:A1 1.62025e-05
23 *323:32 *2941:A2 9.75679e-05
24 *323:32 *2991:A1 5.50052e-05
25 *323:32 *3039:A0 1.58163e-05
26 *323:32 *425:124 4.31243e-05
27 *2904:B1 *323:16 0.000234279
28 *2924:B1 *323:16 9.72343e-05
29 *2944:B1 *323:8 5.33005e-05
30 *2944:B1 *323:16 0.000126439
31 *2991:S *3007:A1 9.95963e-05
32 *3019:S *323:16 0
33 *3024:A *323:26 3.63061e-05
34 *3040:A *323:32 0.000184503
35 *158:12 *323:32 2.85321e-05
36 *195:48 *3007:A1 0.000302859
37 *203:83 *3007:A1 0.00020072
*RES
1 *3250:X *323:8 27.8893 
2 *323:8 *323:16 48.5 
3 *323:16 *323:22 6.42857 
4 *323:22 *323:26 4.25 
5 *323:26 *323:32 12.1786 
6 *323:32 *3007:A1 26.6214 
7 *323:32 *2991:A0 9.3 
8 *323:26 *3039:A1 9.3 
9 *323:22 *3023:A1 9.72857 
*END

*D_NET *324 0.0249778
*CONN
*I *3041:A1 I *D sky130_fd_sc_hd__mux2_1
*I *3025:A1 I *D sky130_fd_sc_hd__mux2_1
*I *2993:A0 I *D sky130_fd_sc_hd__mux2_1
*I *3009:A1 I *D sky130_fd_sc_hd__mux2_1
*I *3251:X O *D sky130_fd_sc_hd__clkbuf_2
*CAP
1 *3041:A1 0.000257192
2 *3025:A1 0
3 *2993:A0 0.000267029
4 *3009:A1 0.000398781
5 *3251:X 0
6 *324:44 0.00115578
7 *324:31 0.0022991
8 *324:10 0.00503265
9 *324:8 0.00492411
10 *324:4 0.00142372
11 *2993:A0 *348:18 0.00018101
12 *3009:A1 *2957:A1 0.000272027
13 *3009:A1 *3116:RESET_B 0.000270923
14 *3009:A1 *402:31 0.000316416
15 *3009:A1 *425:73 0.000100823
16 *3041:A1 *2922:A2 2.47093e-05
17 *3041:A1 *2943:A2 0
18 *3041:A1 *3146:RESET_B 7.83659e-05
19 *3041:A1 *410:12 5.7234e-05
20 *324:8 *351:8 0.0012046
21 *324:8 *390:8 0.00325225
22 *324:10 *2880:A1 3.88664e-05
23 *324:10 *2901:A1 1.07158e-05
24 *324:10 *3055:A0 0.000649132
25 *324:10 *3055:A1 0
26 *324:31 *2957:A0 7.71321e-05
27 *324:31 *426:23 0.000103275
28 *324:44 *348:18 0.000538784
29 *2881:B1 *324:10 0.000673682
30 *2900:B1 *324:10 0
31 *2902:B1 *324:31 0
32 *2926:C *324:44 0.000194914
33 *2946:A *3041:A1 5.24274e-05
34 *2946:B *3041:A1 0
35 *3010:A *3009:A1 0.000267269
36 *3137:D *324:10 0.000124749
37 *3138:CLK *324:10 0
38 *3138:D *324:31 0.000197269
39 *3267:A *324:8 4.73286e-05
40 *139:16 *3009:A1 0.000369815
41 *139:16 *324:10 0
42 *139:16 *324:31 0
43 *143:16 *3009:A1 0.000115685
44 *202:126 *324:10 0
45 *279:22 *324:10 0
46 *296:10 *324:10 0
47 *320:8 *324:10 0
48 *320:8 *324:31 0
*RES
1 *3251:X *324:4 9.3 
2 *324:4 *324:8 47.75 
3 *324:8 *324:10 66.3036 
4 *324:10 *3009:A1 34.1036 
5 *324:10 *324:31 24.9643 
6 *324:31 *2993:A0 12.7107 
7 *324:31 *324:44 19.0536 
8 *324:44 *3025:A1 13.8 
9 *324:44 *3041:A1 18.7821 
*END

*D_NET *325 0.0264247
*CONN
*I *3043:A1 I *D sky130_fd_sc_hd__mux2_1
*I *2995:A0 I *D sky130_fd_sc_hd__mux2_1
*I *3011:A1 I *D sky130_fd_sc_hd__mux2_1
*I *3027:A1 I *D sky130_fd_sc_hd__mux2_1
*I *3252:X O *D sky130_fd_sc_hd__clkbuf_2
*CAP
1 *3043:A1 0.000471522
2 *2995:A0 0.000255654
3 *3011:A1 0.000550199
4 *3027:A1 0
5 *3252:X 0.00110979
6 *325:41 0.00139357
7 *325:31 0.00147933
8 *325:20 0.00144365
9 *325:10 0.00348432
10 *325:8 0.00357055
11 *2995:A0 *338:24 4.17014e-05
12 *2995:A0 *338:49 0.00027322
13 *3011:A1 *2963:A1 0.000360894
14 *3011:A1 *3011:A0 5.71472e-05
15 *3011:A1 *343:57 1.97695e-05
16 *3043:A1 *3043:A0 3.57366e-05
17 *3043:A1 *338:24 7.08297e-05
18 *3043:A1 *419:6 1.92905e-05
19 *3043:A1 *419:17 2.04196e-05
20 *325:8 *326:12 0.00232842
21 *325:8 *327:6 9.90367e-05
22 *325:10 *326:12 0
23 *325:10 *326:14 0
24 *325:10 *339:38 0.000256148
25 *325:10 *340:22 0.000894997
26 *325:10 *412:19 5.33882e-05
27 *325:20 *2980:A0 0.000340073
28 *325:20 *3144:RESET_B 7.79781e-06
29 *325:20 *339:38 8.65729e-06
30 *325:20 *339:81 0.000122615
31 *325:20 *339:91 9.64541e-05
32 *325:20 *340:8 0.00183153
33 *325:20 *340:22 0.0006231
34 *325:31 *3027:A0 0.000523648
35 *325:41 *2910:A1 1.35465e-05
36 *325:41 *2985:A0 0.00018372
37 *325:41 *3027:A0 6.71755e-05
38 *325:41 *427:96 0.000146516
39 *2909:B1 *3043:A1 2.37761e-05
40 *2910:B1 *3043:A1 0.000104749
41 *2910:B1 *325:31 1.02504e-05
42 *2910:B1 *325:41 0.000140933
43 *2911:B1 *325:10 0
44 *2917:A *325:31 9.15842e-06
45 *2930:B1 *3043:A1 0
46 *2947:C *2995:A0 0.000663744
47 *2948:A *2995:A0 5.52302e-05
48 *2985:S *325:41 3.99614e-06
49 *3012:A *3011:A1 5.52302e-05
50 *3027:S *325:20 0.000411519
51 *3038:A *325:20 8.00806e-05
52 *3102:A *325:20 0
53 *3126:D *3043:A1 6.95627e-05
54 *3160:CLK *3011:A1 0.000364953
55 *3180:D *325:10 4.29272e-05
56 *3184:D *325:20 0
57 *3188:CLK *325:10 0.000197977
58 *202:44 *2995:A0 8.73559e-05
59 *202:44 *3011:A1 0.000298766
60 *203:25 *325:20 0.000935921
61 *206:59 *2995:A0 0
62 *206:59 *3011:A1 0
63 *207:137 *3043:A1 1.88048e-05
64 *207:137 *325:31 2.03942e-05
65 *207:149 *3043:A1 4.89147e-05
66 *276:70 *325:31 0
67 *307:10 *325:10 0
68 *318:24 *325:41 0.000526001
*RES
1 *3252:X *325:8 41.8536 
2 *325:8 *325:10 53.5625 
3 *325:10 *325:20 44.0625 
4 *325:20 *3027:A1 9.3 
5 *325:20 *325:31 10.5893 
6 *325:31 *325:41 21.4821 
7 *325:41 *3011:A1 28.6929 
8 *325:41 *2995:A0 23.2464 
9 *325:31 *3043:A1 21.9964 
*END

*D_NET *326 0.015188
*CONN
*I *3029:A1 I *D sky130_fd_sc_hd__mux2_1
*I *2997:A0 I *D sky130_fd_sc_hd__mux2_1
*I *3013:A1 I *D sky130_fd_sc_hd__mux2_1
*I *3045:A1 I *D sky130_fd_sc_hd__mux2_1
*I *3253:X O *D sky130_fd_sc_hd__clkbuf_2
*CAP
1 *3029:A1 0.000200265
2 *2997:A0 0.000157583
3 *3013:A1 0
4 *3045:A1 0
5 *3253:X 0.00159247
6 *326:43 0.00121873
7 *326:22 0.00169755
8 *326:14 0.00246978
9 *326:12 0.00322558
10 *2997:A0 *3013:A0 5.52238e-05
11 *2997:A0 *3200:A 8.07313e-05
12 *2997:A0 *339:20 2.74584e-05
13 *2997:A0 *428:42 0.000142856
14 *3029:A1 *340:22 0.000216108
15 *326:14 *340:22 0.000468782
16 *326:22 *2931:A2 4.38128e-05
17 *326:22 *3156:RESET_B 0.000133233
18 *326:22 *420:8 0.000160197
19 *326:22 *420:21 8.76257e-05
20 *326:43 *2931:A2 0.000273269
21 *326:43 *3013:A0 5.71472e-05
22 *2998:A *2997:A0 9.25014e-06
23 *3014:A *326:43 0.000188586
24 *3132:D *326:43 0.000108982
25 *3140:D *326:43 0.000182343
26 *3156:D *3029:A1 1.00375e-05
27 *3156:D *326:14 2.56694e-05
28 *3254:A *326:12 9.25014e-06
29 *203:60 *326:43 1.70865e-05
30 *274:10 *3029:A1 0
31 *274:12 *3029:A1 0
32 *274:16 *3029:A1 0
33 *274:16 *326:14 0
34 *325:8 *326:12 0.00232842
35 *325:10 *326:12 0
36 *325:10 *326:14 0
*RES
1 *3253:X *326:12 46.9696 
2 *326:12 *326:14 32.9196 
3 *326:14 *326:22 13.3929 
4 *326:22 *3045:A1 9.3 
5 *326:22 *326:43 27.6429 
6 *326:43 *3013:A1 9.3 
7 *326:43 *2997:A0 21.9607 
8 *326:14 *3029:A1 18.7821 
*END

*D_NET *327 0.0222987
*CONN
*I *3031:A1 I *D sky130_fd_sc_hd__mux2_1
*I *3047:A1 I *D sky130_fd_sc_hd__mux2_1
*I *2999:A0 I *D sky130_fd_sc_hd__mux2_1
*I *3015:A1 I *D sky130_fd_sc_hd__mux2_1
*I *3254:X O *D sky130_fd_sc_hd__clkbuf_2
*CAP
1 *3031:A1 8.28136e-05
2 *3047:A1 0.000433653
3 *2999:A0 0.000111474
4 *3015:A1 1.645e-05
5 *3254:X 0
6 *327:31 0.000761767
7 *327:27 0.000914804
8 *327:10 0.00480395
9 *327:8 0.00417215
10 *327:6 0.00228902
11 *327:4 0.00228902
12 *2999:A0 *3133:RESET_B 0
13 *2999:A0 *429:67 0
14 *3015:A1 *3015:A0 9.90367e-05
15 *3031:A1 *3031:A0 5.52238e-05
16 *3047:A1 *3047:A0 0.000579959
17 *3047:A1 *3133:RESET_B 0
18 *3047:A1 *342:71 0
19 *3047:A1 *427:28 0.00083797
20 *3047:A1 *429:67 0
21 *327:6 *390:12 0.00185155
22 *327:10 *2875:A2 0
23 *327:10 *2915:A2 0
24 *327:10 *2935:A1 0
25 *327:10 *2949:A 0.00021346
26 *327:10 *2965:A0 9.77491e-05
27 *327:10 *2965:A1 7.31613e-05
28 *327:10 *3001:A1 0
29 *327:10 *3049:A1 0
30 *327:10 *3182:RESET_B 0.000114759
31 *327:10 *332:33 0
32 *327:10 *336:10 0
33 *327:10 *345:106 6.0038e-05
34 *327:10 *398:23 0
35 *327:10 *430:14 1.50181e-05
36 *327:27 *2949:A 0.000401292
37 *327:27 *335:10 2.21972e-05
38 *327:27 *335:12 0.000697445
39 *2878:B1 *2999:A0 0
40 *2878:B1 *327:27 0.000116891
41 *2888:A *327:27 0.000132976
42 *2907:A *327:10 0
43 *2916:B1 *327:10 0
44 *2935:B1 *327:10 0
45 *2966:A *327:10 8.00806e-05
46 *3032:A *327:31 0.000216862
47 *3122:CLK *327:10 0.000179062
48 *3122:D *327:10 0.000104974
49 *3166:D *327:10 4.48113e-05
50 *3182:D *327:10 5.94923e-05
51 *3190:CLK *327:10 0
52 *3241:A *327:10 0
53 *3257:A *327:6 0.00014258
54 *135:12 *327:10 0
55 *163:24 *3015:A1 9.90367e-05
56 *175:12 *3047:A1 2.89016e-05
57 *325:8 *327:6 9.90367e-05
*RES
1 *3254:X *327:4 9.3 
2 *327:4 *327:6 46.5357 
3 *327:6 *327:8 4.5 
4 *327:8 *327:10 75.7143 
5 *327:10 *3015:A1 14.7464 
6 *327:10 *327:27 21.9821 
7 *327:27 *327:31 9.14286 
8 *327:31 *2999:A0 15.7464 
9 *327:31 *3047:A1 26.1036 
10 *327:27 *3031:A1 10.6571 
*END

*D_NET *328 0.0188826
*CONN
*I *3017:A1 I *D sky130_fd_sc_hd__mux2_1
*I *3033:A1 I *D sky130_fd_sc_hd__mux2_1
*I *3001:A0 I *D sky130_fd_sc_hd__mux2_1
*I *3049:A1 I *D sky130_fd_sc_hd__mux2_1
*I *3255:X O *D sky130_fd_sc_hd__clkbuf_2
*CAP
1 *3017:A1 7.40977e-05
2 *3033:A1 0
3 *3001:A0 0.000352586
4 *3049:A1 0.000372396
5 *3255:X 0
6 *328:24 0.000756808
7 *328:20 0.000685301
8 *328:14 0.0030631
9 *328:12 0.00354243
10 *328:8 0.00390656
11 *328:4 0.00269966
12 *3001:A0 *3001:A1 4.97967e-05
13 *3001:A0 *430:26 0.000184664
14 *3001:A0 *430:30 0.000104132
15 *3017:A1 *406:25 0.000211622
16 *3049:A1 *2915:A2 0.000175519
17 *3049:A1 *2935:A1 0.000170654
18 *3049:A1 *2936:A2 0.000197977
19 *3049:A1 *341:49 0
20 *3049:A1 *341:65 0
21 *3049:A1 *422:12 6.38844e-06
22 *3049:A1 *430:30 8.06427e-05
23 *328:14 *2895:A2 7.83587e-05
24 *328:14 *345:38 0
25 *328:14 *345:106 0
26 *328:14 *406:25 0.000226021
27 *328:24 *414:14 5.33005e-05
28 *2916:B1 *3001:A0 8.38387e-05
29 *2916:B1 *3049:A1 1.08359e-05
30 *3018:A *328:20 0.000392917
31 *3174:D *328:14 4.57445e-05
32 *194:36 *328:14 0.000100576
33 *195:33 *3001:A0 9.75679e-05
34 *195:48 *3001:A0 5.49995e-05
35 *198:33 *328:14 0
36 *203:60 *328:20 2.07168e-05
37 *203:60 *328:24 9.71197e-05
38 *203:71 *328:20 0.000308538
39 *278:8 *328:20 0.000110107
40 *278:20 *328:14 0
41 *278:28 *328:14 0
42 *320:25 *3017:A1 0.0001142
43 *320:25 *328:14 0.000414162
44 *320:31 *328:14 3.92854e-05
45 *327:10 *3049:A1 0
*RES
1 *3255:X *328:4 9.3 
2 *328:4 *328:8 41.4196 
3 *328:8 *328:12 18.3839 
4 *328:12 *328:14 46.5714 
5 *328:14 *328:20 16.8571 
6 *328:20 *328:24 5.44643 
7 *328:24 *3049:A1 20.8714 
8 *328:24 *3001:A0 22.5679 
9 *328:20 *3033:A1 9.3 
10 *328:14 *3017:A1 16.6571 
*END

*D_NET *329 0.0113384
*CONN
*I *2972:B I *D sky130_fd_sc_hd__and3b_1
*I *2967:B I *D sky130_fd_sc_hd__or3b_1
*I *2982:B I *D sky130_fd_sc_hd__and3_1
*I *2977:A_N I *D sky130_fd_sc_hd__and3b_1
*I *3256:X O *D sky130_fd_sc_hd__buf_1
*CAP
1 *2972:B 0.000335491
2 *2967:B 0
3 *2982:B 9.85314e-05
4 *2977:A_N 0
5 *3256:X 0
6 *329:30 0.000368945
7 *329:21 0.00024748
8 *329:10 0.0014744
9 *329:8 0.00490907
10 *329:4 0.00355017
11 *2972:B *2972:A_N 0.000116039
12 *2972:B *330:18 6.4443e-05
13 *2972:B *340:30 5.33334e-05
14 *2982:B *340:30 5.84656e-05
15 *329:21 *2977:C 2.56601e-05
16 *329:30 *340:30 2.89114e-05
17 *3188:D *2982:B 7.43578e-06
18 *202:10 *329:21 0
*RES
1 *3256:X *329:4 9.3 
2 *329:4 *329:8 45.6964 
3 *329:8 *329:10 25.0179 
4 *329:10 *2977:A_N 13.8 
5 *329:10 *329:21 6.44643 
6 *329:21 *2982:B 10.6571 
7 *329:21 *329:30 0.535714 
8 *329:30 *2967:B 9.3 
9 *329:30 *2972:B 13.9429 
*END

*D_NET *330 0.00614186
*CONN
*I *2972:C I *D sky130_fd_sc_hd__and3b_1
*I *2977:B I *D sky130_fd_sc_hd__and3b_1
*I *2982:C I *D sky130_fd_sc_hd__and3_1
*I *2967:C_N I *D sky130_fd_sc_hd__or3b_1
*I *3257:X O *D sky130_fd_sc_hd__buf_1
*CAP
1 *2972:C 1.7586e-05
2 *2977:B 9.46241e-05
3 *2982:C 6.46658e-05
4 *2967:C_N 0
5 *3257:X 0.00164496
6 *330:20 0.000119867
7 *330:18 0.000240278
8 *330:16 0.000621027
9 *330:10 0.00215794
10 *2977:B *2977:C 0.000125724
11 *2982:C *340:30 0.000109645
12 *330:18 *2972:A_N 0.000174232
13 *330:20 *2972:A_N 5.33005e-05
14 *330:20 *340:30 0.00014285
15 *2968:A *2972:C 1.04232e-05
16 *2968:A *330:16 7.75319e-05
17 *2968:A *330:18 0.000149489
18 *2972:B *330:18 6.4443e-05
19 *2983:A *2982:C 5.52302e-05
20 *2983:A *330:20 4.88637e-05
21 *194:20 *330:16 0.000169182
22 *202:10 *2977:B 0
*RES
1 *3257:X *330:10 48.4786 
2 *330:10 *330:16 7.44643 
3 *330:16 *330:18 3.41071 
4 *330:18 *330:20 1.76786 
5 *330:20 *2967:C_N 9.3 
6 *330:20 *2982:C 10.9429 
7 *330:18 *2977:B 20.2464 
8 *330:16 *2972:C 9.72857 
*END

*D_NET *331 0.0063246
*CONN
*I *2951:A1 I *D sky130_fd_sc_hd__mux2_1
*I *3258:X O *D sky130_fd_sc_hd__buf_1
*CAP
1 *2951:A1 0.00188317
2 *3258:X 0.000713203
3 *331:10 0.00259637
4 *2951:A1 *2951:A0 0.000532305
5 *3258:A *331:10 5.99442e-05
6 *319:10 *331:10 0.000539608
*RES
1 *3258:X *331:10 33.9071 
2 *331:10 *2951:A1 32.0143 
*END

*D_NET *332 0.0327906
*CONN
*I *2961:S I *D sky130_fd_sc_hd__mux2_1
*I *2951:S I *D sky130_fd_sc_hd__mux2_1
*I *2959:S I *D sky130_fd_sc_hd__mux2_1
*I *2965:S I *D sky130_fd_sc_hd__mux2_1
*I *2953:S I *D sky130_fd_sc_hd__mux2_1
*I *2955:S I *D sky130_fd_sc_hd__mux2_1
*I *2957:S I *D sky130_fd_sc_hd__mux2_1
*I *2963:S I *D sky130_fd_sc_hd__mux2_1
*I *3259:X O *D sky130_fd_sc_hd__buf_4
*CAP
1 *2961:S 2.04425e-05
2 *2951:S 0.000344959
3 *2959:S 0
4 *2965:S 0
5 *2953:S 0
6 *2955:S 0.000107113
7 *2957:S 0
8 *2963:S 2.23854e-05
9 *3259:X 0.00225467
10 *332:116 0.00225313
11 *332:97 0.00325957
12 *332:60 0.000765304
13 *332:49 0.0021178
14 *332:33 0.00184207
15 *332:29 0.00280273
16 *332:20 0.00256273
17 *332:10 0.00207097
18 *332:6 0.00283372
19 *2951:S *2951:A0 5.17614e-05
20 *2955:S *2953:A0 6.65398e-05
21 *2955:S *2955:A0 3.99614e-06
22 *332:10 *343:113 0.000985763
23 *332:10 *343:120 0.000718407
24 *332:20 *2963:A0 1.98839e-05
25 *332:20 *2963:A1 0.00133687
26 *332:20 *337:37 0.000187882
27 *332:20 *343:57 1.57523e-05
28 *332:20 *343:113 0.000146474
29 *332:20 *428:16 2.27416e-05
30 *332:20 *428:27 6.39997e-05
31 *332:29 *2963:A0 0.000358915
32 *332:29 *343:37 2.97829e-05
33 *332:33 *2898:A2 1.59782e-05
34 *332:33 *2949:B 8.89297e-05
35 *332:33 *2965:A0 1.41029e-05
36 *332:33 *2965:A1 5.78654e-05
37 *332:33 *3141:RESET_B 0.000204758
38 *332:33 *429:31 5.4061e-05
39 *332:33 *429:55 0.000107959
40 *332:49 *2949:B 2.49484e-05
41 *332:49 *2955:A0 8.25843e-06
42 *332:49 *2965:A0 8.06427e-05
43 *332:49 *3138:RESET_B 2.24724e-05
44 *332:49 *336:10 5.33978e-05
45 *332:49 *402:16 0.000228784
46 *332:49 *424:28 0.000208719
47 *332:60 *2953:A0 7.08482e-05
48 *332:60 *2953:A1 5.71472e-05
49 *332:60 *2957:A0 0.000100685
50 *332:60 *2957:A1 3.57366e-05
51 *332:97 *2959:A1 5.33005e-05
52 *332:97 *348:30 5.71124e-05
53 *332:97 *348:70 0.000123359
54 *332:116 *2959:A1 0.000213609
55 *332:116 *426:61 0.000104397
56 *332:116 *426:81 0.00042211
57 *2886:A *332:97 0
58 *2943:B1 *332:116 4.71964e-05
59 *2946:B *332:116 0
60 *2946:D *332:116 0
61 *2952:A *2951:S 0.00013949
62 *2980:A1 *2961:S 2.59355e-05
63 *2994:A *332:97 1.9774e-05
64 *3009:S *332:33 0
65 *3010:A *332:60 7.84241e-05
66 *3047:S *332:10 0
67 *3138:D *332:49 8.76933e-05
68 *3139:CLK *2961:S 5.33005e-05
69 *3141:D *332:29 9.90367e-05
70 *120:18 *332:97 0
71 *125:22 *332:97 0
72 *139:16 *332:49 0.000123295
73 *143:16 *2955:S 5.52302e-05
74 *143:16 *332:60 0.000393391
75 *156:16 *332:97 0.000425354
76 *166:8 *332:10 0.00109128
77 *166:8 *332:20 0.000267807
78 *195:69 *2955:S 6.42242e-05
79 *203:102 *332:33 0
80 *207:149 *332:10 0
81 *273:10 *332:33 1.01912e-05
82 *280:44 *332:97 0
83 *281:44 *332:116 8.27217e-05
84 *281:72 *332:116 5.0725e-05
85 *327:10 *332:33 0
*RES
1 *3259:X *332:6 45.9786 
2 *332:6 *332:10 26.1786 
3 *332:10 *332:20 30.4107 
4 *332:20 *2963:S 9.72857 
5 *332:20 *332:29 17.375 
6 *332:29 *332:33 14.0357 
7 *332:33 *332:49 34.6071 
8 *332:49 *2957:S 9.3 
9 *332:49 *332:60 13.9107 
10 *332:60 *2955:S 21.2107 
11 *332:60 *2953:S 9.3 
12 *332:33 *2965:S 13.8 
13 *332:29 *332:97 32.125 
14 *332:97 *2959:S 9.3 
15 *332:97 *332:116 45.3393 
16 *332:116 *2951:S 15.9964 
17 *332:10 *2961:S 14.3357 
*END

*D_NET *333 0.0178757
*CONN
*I *3208:A I *D sky130_fd_sc_hd__clkbuf_4
*I *3206:A I *D sky130_fd_sc_hd__clkbuf_4
*I *3205:A I *D sky130_fd_sc_hd__clkbuf_4
*I *3204:A I *D sky130_fd_sc_hd__clkbuf_2
*I *3260:X O *D sky130_fd_sc_hd__clkbuf_2
*CAP
1 *3208:A 0
2 *3206:A 2.66417e-05
3 *3205:A 0.000313865
4 *3204:A 0
5 *3260:X 0.000925035
6 *333:57 0.00211367
7 *333:42 0.00253307
8 *333:18 0.00159936
9 *333:8 0.00318981
10 *333:6 0.00259438
11 *3206:A *346:16 2.84026e-05
12 *333:18 *2895:A1 5.71472e-05
13 *333:18 *3049:A0 5.71472e-05
14 *333:18 *3081:A0 0.000185124
15 *333:18 *341:10 0
16 *333:18 *341:49 0
17 *333:18 *422:12 0
18 *333:18 *422:21 7.03295e-05
19 *333:42 *346:29 0.000223631
20 *333:57 *346:16 2.59355e-05
21 *2880:B1 *3205:A 0
22 *3104:A *3205:A 0
23 *206:181 *3205:A 1.92789e-05
24 *207:39 *333:8 0.00153015
25 *207:39 *333:18 0.00238275
26 *279:88 *3205:A 0
27 *323:16 *333:57 0
*RES
1 *3260:X *333:6 23.3893 
2 *333:6 *333:8 23.5357 
3 *333:8 *333:18 41.2857 
4 *333:18 *3204:A 9.3 
5 *333:8 *3205:A 23.5143 
6 *333:6 *333:42 17.0179 
7 *333:42 *3206:A 9.83571 
8 *333:42 *333:57 46.125 
9 *333:57 *3208:A 9.3 
*END

*D_NET *334 0.000851452
*CONN
*I *3268:A I *D sky130_fd_sc_hd__clkbuf_4
*I *2950:X O *D sky130_fd_sc_hd__clkbuf_1
*CAP
1 *3268:A 0.000425726
2 *2950:X 0.000425726
*RES
1 *2950:X *3268:A 34.975 
*END

*D_NET *335 0.0111417
*CONN
*I *2949:A I *D sky130_fd_sc_hd__or4_1
*I *3269:A I *D sky130_fd_sc_hd__clkbuf_4
*I *2888:X O *D sky130_fd_sc_hd__buf_1
*CAP
1 *2949:A 0.00061305
2 *3269:A 0
3 *2888:X 8.71038e-05
4 *335:12 0.00254126
5 *335:10 0.00324142
6 *2949:A *2949:B 0.000203933
7 *2949:A *2965:A1 5.37709e-05
8 *2949:A *2975:A0 0.000185643
9 *2949:A *3202:A 0
10 *2949:A *429:18 0.000259664
11 *2949:A *429:31 0.000161411
12 *2949:A *429:55 0.000605185
13 *335:12 *2918:A1 0.000127807
14 *335:12 *3165:RESET_B 0
15 *335:12 *427:28 4.84667e-05
16 *335:12 *429:55 0.000255997
17 *335:12 *429:109 7.14533e-05
18 *2878:B1 *335:12 0.000411553
19 *2888:A *335:10 3.14048e-05
20 *2907:A *2949:A 2.95642e-05
21 *2918:B1 *335:12 0
22 *3016:A *2949:A 3.69697e-05
23 *3181:D *335:12 0
24 *3232:A *335:12 0
25 *3241:A *2949:A 0.000156816
26 *163:24 *2949:A 0.000114655
27 *199:118 *2949:A 0.000399841
28 *283:8 *2949:A 5.33005e-05
29 *292:8 *335:12 0.000117082
30 *327:10 *2949:A 0.00021346
31 *327:27 *2949:A 0.000401292
32 *327:27 *335:10 2.21972e-05
33 *327:27 *335:12 0.000697445
*RES
1 *2888:X *335:10 15.0232 
2 *335:10 *335:12 55.2232 
3 *335:12 *3269:A 13.8 
4 *335:10 *2949:A 45.3625 
*END

*D_NET *336 0.0117029
*CONN
*I *2949:B I *D sky130_fd_sc_hd__or4_1
*I *3270:A I *D sky130_fd_sc_hd__clkbuf_4
*I *2908:X O *D sky130_fd_sc_hd__buf_1
*CAP
1 *2949:B 0.00116507
2 *3270:A 0
3 *2908:X 3.92213e-05
4 *336:10 0.00347502
5 *336:8 0.00467931
6 *2949:B *3202:A 0
7 *2949:B *429:18 3.80953e-06
8 *336:10 *2965:A0 0
9 *336:10 *3182:RESET_B 0
10 *336:10 *345:106 0
11 *336:10 *430:14 0
12 *2887:B *2949:B 0.000196406
13 *2908:A *336:8 5.52302e-05
14 *2915:B1 *336:10 0.000260876
15 *2949:A *2949:B 0.000203933
16 *3009:S *2949:B 2.8266e-06
17 *3122:CLK *336:10 0
18 *3166:D *336:10 0
19 *3228:A *336:10 0.000360116
20 *153:16 *2949:B 9.77061e-05
21 *199:118 *2949:B 7.83659e-05
22 *203:71 *336:10 0.000262331
23 *203:102 *2949:B 6.45111e-05
24 *203:102 *336:10 0.000525878
25 *278:10 *336:10 0
26 *278:16 *336:10 0
27 *283:8 *2949:B 6.50434e-05
28 *327:10 *336:10 0
29 *332:33 *2949:B 8.89297e-05
30 *332:49 *2949:B 2.49484e-05
31 *332:49 *336:10 5.33978e-05
*RES
1 *2908:X *336:8 14.3357 
2 *336:8 *336:10 69.9464 
3 *336:10 *3270:A 13.8 
4 *336:8 *2949:B 40.6036 
*END

*D_NET *337 0.0122004
*CONN
*I *3271:A I *D sky130_fd_sc_hd__clkbuf_4
*I *2949:C I *D sky130_fd_sc_hd__or4_1
*I *2928:X O *D sky130_fd_sc_hd__buf_1
*CAP
1 *3271:A 0
2 *2949:C 0.00136421
3 *2928:X 0
4 *337:37 0.00270527
5 *337:6 0.00406949
6 *2949:C *2975:A0 0.000199221
7 *337:37 *3120:RESET_B 2.81497e-05
8 *337:37 *3125:RESET_B 2.44448e-05
9 *337:37 *343:57 4.13496e-05
10 *337:37 *343:67 6.17899e-05
11 *337:37 *343:73 0.000169418
12 *337:37 *343:75 1.69961e-05
13 *2927:A *337:37 0.000285619
14 *2927:C *2949:C 0.000535411
15 *2975:S *2949:C 0.000174232
16 *2976:A *2949:C 0.000178847
17 *3011:S *2949:C 0.000139907
18 *3120:CLK *337:37 0.000357952
19 *3120:D *337:37 2.89114e-05
20 *3125:CLK *337:37 5.00524e-05
21 *173:10 *2949:C 0.000299281
22 *173:10 *337:37 0.000115474
23 *199:118 *2949:C 4.60636e-05
24 *202:44 *2949:C 0.000575092
25 *206:59 *2949:C 0.000297566
26 *206:59 *337:37 0.000125724
27 *276:27 *337:37 2.43393e-05
28 *284:6 *337:37 9.7659e-05
29 *332:20 *337:37 0.000187882
*RES
1 *2928:X *337:6 13.8 
2 *337:6 *2949:C 43.7286 
3 *337:6 *337:37 48.0179 
4 *337:37 *3271:A 9.3 
*END

*D_NET *338 0.0207161
*CONN
*I *2949:D I *D sky130_fd_sc_hd__or4_1
*I *3272:A I *D sky130_fd_sc_hd__clkbuf_4
*I *2948:X O *D sky130_fd_sc_hd__dlymetal6s2s_1
*CAP
1 *2949:D 0
2 *3272:A 0
3 *2948:X 1.91209e-05
4 *338:49 0.00189724
5 *338:32 0.00160813
6 *338:28 0.00431021
7 *338:24 0.00378054
8 *338:6 0.00299481
9 *338:24 *2909:A1 0.000224583
10 *338:28 *419:6 4.53889e-05
11 *338:32 *362:8 0
12 *338:49 *2963:A0 4.84853e-05
13 *338:49 *2970:A1 0.000109809
14 *338:49 *2975:A0 9.80173e-05
15 *338:49 *344:37 0
16 *338:49 *344:49 0
17 *2887:B *338:49 0.000220448
18 *2909:B1 *338:24 3.92757e-05
19 *2947:B *338:24 7.35636e-05
20 *2947:C *338:24 5.1129e-05
21 *2947:C *338:49 0.000214164
22 *2948:A *338:6 0
23 *2948:A *338:24 0.000136362
24 *2975:A1 *338:49 0
25 *2995:A0 *338:24 4.17014e-05
26 *2995:A0 *338:49 0.00027322
27 *2995:S *338:49 0.000870142
28 *3000:A *338:49 0.000127087
29 *3043:A1 *338:24 7.08297e-05
30 *3044:A *338:28 2.13481e-06
31 *3149:CLK *338:49 0
32 *3155:CLK *338:28 0.000305082
33 *3209:A *338:24 5.71472e-05
34 *3245:A *338:32 0
35 *163:24 *338:49 9.60939e-05
36 *195:126 *338:49 0
37 *285:8 *338:24 4.12451e-05
38 *318:14 *338:32 0.00296016
*RES
1 *2948:X *338:6 9.72857 
2 *338:6 *338:24 24.9286 
3 *338:24 *338:28 37.0714 
4 *338:28 *338:32 46.8214 
5 *338:32 *3272:A 9.3 
6 *338:6 *338:49 46.9107 
7 *338:49 *2949:D 9.3 
*END

*D_NET *339 0.0118687
*CONN
*I *3168:RESET_B I *D sky130_fd_sc_hd__dfrtp_1
*I *3136:RESET_B I *D sky130_fd_sc_hd__dfrtp_1
*I *3144:RESET_B I *D sky130_fd_sc_hd__dfrtp_1
*I *3184:RESET_B I *D sky130_fd_sc_hd__dfrtp_1
*I *3152:RESET_B I *D sky130_fd_sc_hd__dfrtp_1
*I *3156:RESET_B I *D sky130_fd_sc_hd__dfrtp_1
*I *3180:RESET_B I *D sky130_fd_sc_hd__dfrtp_1
*I *3188:RESET_B I *D sky130_fd_sc_hd__dfrtp_1
*I *3148:RESET_B I *D sky130_fd_sc_hd__dfrtp_1
*I *3140:RESET_B I *D sky130_fd_sc_hd__dfrtp_1
*I *3200:X O *D sky130_fd_sc_hd__clkbuf_4
*CAP
1 *3168:RESET_B 0.000130155
2 *3136:RESET_B 3.38418e-05
3 *3144:RESET_B 0.000332362
4 *3184:RESET_B 9.51666e-05
5 *3152:RESET_B 3.32098e-05
6 *3156:RESET_B 5.38532e-05
7 *3180:RESET_B 8.27309e-05
8 *3188:RESET_B 0.000105193
9 *3148:RESET_B 0.000164119
10 *3140:RESET_B 0.000210384
11 *3200:X 3.92359e-05
12 *339:113 0.000322208
13 *339:91 0.000567631
14 *339:81 0.000371194
15 *339:56 0.00063269
16 *339:54 0.00076057
17 *339:38 0.00083247
18 *339:26 0.00171302
19 *339:20 0.00173968
20 *339:8 0.000722359
21 *3148:RESET_B *2911:A2 6.05161e-06
22 *3156:RESET_B *420:8 1.24368e-05
23 *3168:RESET_B *424:58 1.60121e-05
24 *339:38 *412:19 0.00010326
25 *339:54 *2911:A2 0.000170964
26 *339:54 *2932:A2 0
27 *339:56 *3093:A1 0
28 *339:91 *3037:A0 0
29 *2911:B1 *339:38 0
30 *2911:B1 *339:54 0.000168698
31 *2911:B1 *339:56 0.000559259
32 *2997:A0 *339:20 2.74584e-05
33 *2998:A *339:20 4.66203e-05
34 *3013:S *339:20 0
35 *3038:A *3144:RESET_B 3.57844e-05
36 *3038:A *3184:RESET_B 1.97695e-05
37 *3038:A *339:91 5.80706e-06
38 *3045:S *339:38 0
39 *3045:S *339:54 4.79842e-05
40 *3046:A *339:56 3.92757e-05
41 *3140:D *3140:RESET_B 0
42 *3140:D *339:20 0
43 *3180:D *3188:RESET_B 0
44 *3180:D *339:56 0
45 *3184:D *3144:RESET_B 5.33882e-05
46 *3184:D *3184:RESET_B 5.03772e-05
47 *3184:D *339:91 4.25619e-05
48 *3188:CLK *3188:RESET_B 0
49 *207:22 *3140:RESET_B 0.000202828
50 *207:22 *339:8 5.52238e-05
51 *207:22 *339:20 9.25014e-06
52 *207:118 *339:38 0
53 *207:118 *339:91 0
54 *275:27 *3136:RESET_B 9.18583e-05
55 *275:70 *3140:RESET_B 9.23759e-05
56 *307:10 *3180:RESET_B 1.40306e-05
57 *307:10 *339:56 0.000125731
58 *322:16 *3144:RESET_B 0.000304752
59 *325:10 *339:38 0.000256148
60 *325:20 *3144:RESET_B 7.79781e-06
61 *325:20 *339:38 8.65729e-06
62 *325:20 *339:81 0.000122615
63 *325:20 *339:91 9.64541e-05
64 *326:22 *3156:RESET_B 0.000133233
*RES
1 *3200:X *339:8 14.3357 
2 *339:8 *3140:RESET_B 9.15179 
3 *339:8 *339:20 8.32143 
4 *339:20 *339:26 26.7857 
5 *339:26 *339:38 13.8393 
6 *339:38 *3148:RESET_B 2.4375 
7 *339:38 *339:54 10.1786 
8 *339:54 *339:56 9.83929 
9 *339:56 *3188:RESET_B 6.14286 
10 *339:56 *3180:RESET_B 5.79464 
11 *339:54 *3156:RESET_B 5.79464 
12 *339:26 *339:81 4.67857 
13 *339:81 *3152:RESET_B 4.97321 
14 *339:81 *339:91 3.46429 
15 *339:91 *3184:RESET_B 6.22321 
16 *339:91 *3144:RESET_B 11.2411 
17 *339:20 *339:113 2.85714 
18 *339:113 *3136:RESET_B 5.38393 
19 *339:113 *3168:RESET_B 6.61607 
*END

*D_NET *340 0.0175652
*CONN
*I *2982:A I *D sky130_fd_sc_hd__and3_1
*I *2972:A_N I *D sky130_fd_sc_hd__and3b_1
*I *2967:A I *D sky130_fd_sc_hd__or3b_1
*I *2977:C I *D sky130_fd_sc_hd__and3b_1
*I *3261:X O *D sky130_fd_sc_hd__clkbuf_2
*CAP
1 *2982:A 0
2 *2972:A_N 4.45595e-05
3 *2967:A 0
4 *2977:C 0.000161372
5 *3261:X 0
6 *340:30 0.000340183
7 *340:22 0.00193428
8 *340:8 0.00547912
9 *340:6 0.00367909
10 *340:8 *3155:RESET_B 0
11 *340:8 *343:85 0
12 *340:8 *408:10 0
13 *340:8 *408:23 0
14 *2972:B *2972:A_N 0.000116039
15 *2972:B *340:30 5.33334e-05
16 *2977:B *2977:C 0.000125724
17 *2978:A *2977:C 2.34059e-05
18 *2982:B *340:30 5.84656e-05
19 *2982:C *340:30 0.000109645
20 *3027:S *340:8 2.66235e-05
21 *3029:A1 *340:22 0.000216108
22 *3044:A *340:8 0.000154762
23 *3152:D *340:22 0
24 *3155:D *340:8 2.34204e-05
25 *3176:CLK *340:8 0
26 *3176:D *340:8 6.42242e-05
27 *3184:CLK *340:22 0.000177948
28 *3188:D *340:22 0.000432551
29 *3188:D *340:30 0.00010096
30 *203:14 *340:8 0
31 *203:14 *340:22 0
32 *274:10 *340:22 0
33 *325:10 *340:22 0.000894997
34 *325:20 *340:8 0.00183153
35 *325:20 *340:22 0.0006231
36 *326:14 *340:22 0.000468782
37 *329:21 *2977:C 2.56601e-05
38 *329:30 *340:30 2.89114e-05
39 *330:18 *2972:A_N 0.000174232
40 *330:20 *2972:A_N 5.33005e-05
41 *330:20 *340:30 0.00014285
*RES
1 *3261:X *340:6 13.8 
2 *340:6 *340:8 76.7768 
3 *340:8 *340:22 46.7589 
4 *340:22 *340:30 4.39286 
5 *340:30 *2977:C 21.8179 
6 *340:30 *2967:A 9.3 
7 *340:30 *2972:A_N 11.4786 
8 *340:22 *2982:A 9.3 
*END

*D_NET *341 0.0131956
*CONN
*I *3128:RESET_B I *D sky130_fd_sc_hd__dfrtp_1
*I *3134:RESET_B I *D sky130_fd_sc_hd__dfrtp_1
*I *3150:RESET_B I *D sky130_fd_sc_hd__dfrtp_1
*I *3132:RESET_B I *D sky130_fd_sc_hd__dfrtp_1
*I *3158:RESET_B I *D sky130_fd_sc_hd__dfrtp_1
*I *3172:RESET_B I *D sky130_fd_sc_hd__dfrtp_1
*I *3164:RESET_B I *D sky130_fd_sc_hd__dfrtp_1
*I *3201:X O *D sky130_fd_sc_hd__buf_2
*CAP
1 *3128:RESET_B 0.0010228
2 *3134:RESET_B 0.00141459
3 *3150:RESET_B 4.28104e-05
4 *3132:RESET_B 0.000724969
5 *3158:RESET_B 0
6 *3172:RESET_B 0.00016916
7 *3164:RESET_B 0.00100557
8 *3201:X 0.000294338
9 *341:65 0.000676667
10 *341:49 0.00111659
11 *341:10 0.00108131
12 *341:8 0.000688791
13 *3132:RESET_B *2871:A1 3.37729e-05
14 *3132:RESET_B *2871:A2 0.000174701
15 *3132:RESET_B *2891:A2 2.41649e-05
16 *3132:RESET_B *396:12 1.00073e-05
17 *3134:RESET_B *414:14 0
18 *3172:RESET_B *3077:A0 3.25247e-05
19 *341:8 *3201:A 7.50473e-05
20 *341:8 *344:12 5.26663e-05
21 *341:10 *422:12 0
22 *341:49 *2936:A2 0
23 *341:49 *422:12 0
24 *341:65 *414:14 0
25 *341:65 *430:30 0
26 *2891:B1 *3172:RESET_B 0.000181919
27 *2897:B *3128:RESET_B 1.00887e-05
28 *2897:C *3128:RESET_B 6.05161e-06
29 *2936:B1 *341:49 4.1331e-06
30 *2936:B1 *341:65 5.80217e-05
31 *3034:A *341:65 0
32 *3049:A1 *341:49 0
33 *3049:A1 *341:65 0
34 *3050:A *341:10 1.02504e-05
35 *3050:A *341:49 6.98302e-05
36 *3128:D *3128:RESET_B 5.52238e-05
37 *3134:CLK *3128:RESET_B 9.40308e-05
38 *3158:D *341:10 0
39 *3164:CLK *3164:RESET_B 9.60939e-05
40 *3164:D *3172:RESET_B 0
41 *3190:CLK *3164:RESET_B 0
42 *3191:A *3134:RESET_B 0.000112789
43 *3215:A *3172:RESET_B 0.000188586
44 *128:14 *3128:RESET_B 0.000104246
45 *134:16 *3128:RESET_B 0.000216347
46 *134:16 *3134:RESET_B 0.000477699
47 *153:16 *3134:RESET_B 0.000191644
48 *172:20 *3128:RESET_B 4.73514e-05
49 *172:20 *3134:RESET_B 0
50 *172:20 *341:65 0
51 *194:36 *3164:RESET_B 4.69323e-05
52 *194:82 *3128:RESET_B 4.70821e-05
53 *194:82 *3134:RESET_B 0.000100248
54 *194:93 *3128:RESET_B 2.97318e-05
55 *195:100 *3128:RESET_B 0
56 *203:60 *3150:RESET_B 5.52238e-05
57 *206:146 *3164:RESET_B 0.000255773
58 *207:22 *3132:RESET_B 0.0017117
59 *207:39 *3132:RESET_B 0
60 *275:31 *3128:RESET_B 0.000184976
61 *275:47 *3172:RESET_B 0.000199173
62 *333:18 *341:10 0
63 *333:18 *341:49 0
*RES
1 *3201:X *341:8 17.6214 
2 *341:8 *341:10 3.76786 
3 *341:10 *3164:RESET_B 18.1696 
4 *3164:RESET_B *3172:RESET_B 14.4196 
5 *341:10 *3158:RESET_B 4.5 
6 *341:8 *341:49 2.55357 
7 *341:49 *3132:RESET_B 22.5804 
8 *341:49 *341:65 4.375 
9 *341:65 *3150:RESET_B 5.40179 
10 *341:65 *3134:RESET_B 13.7321 
11 *3134:RESET_B *3128:RESET_B 24.9464 
*END

*D_NET *342 0.0171821
*CONN
*I *3163:RESET_B I *D sky130_fd_sc_hd__dfrtp_1
*I *3131:RESET_B I *D sky130_fd_sc_hd__dfrtp_1
*I *3165:RESET_B I *D sky130_fd_sc_hd__dfrtp_1
*I *3149:RESET_B I *D sky130_fd_sc_hd__dfrtp_1
*I *3133:RESET_B I *D sky130_fd_sc_hd__dfrtp_1
*I *3157:RESET_B I *D sky130_fd_sc_hd__dfrtp_1
*I *3123:RESET_B I *D sky130_fd_sc_hd__dfrtp_1
*I *3121:RESET_B I *D sky130_fd_sc_hd__dfrtp_4
*I *3160:RESET_B I *D sky130_fd_sc_hd__dfrtp_1
*I *3124:RESET_B I *D sky130_fd_sc_hd__dfrtp_1
*I *3202:X O *D sky130_fd_sc_hd__clkbuf_4
*CAP
1 *3163:RESET_B 0.000342656
2 *3131:RESET_B 0.000165423
3 *3165:RESET_B 0.000667684
4 *3149:RESET_B 0
5 *3133:RESET_B 0.000193492
6 *3157:RESET_B 0.00105141
7 *3123:RESET_B 0
8 *3121:RESET_B 0.000475777
9 *3160:RESET_B 0.000782712
10 *3124:RESET_B 9.46002e-05
11 *3202:X 0.000705633
12 *342:98 0.00148243
13 *342:71 0.0005091
14 *342:69 0.0020347
15 *342:56 0.00154121
16 *342:49 0.0009379
17 *342:24 0.0010293
18 *342:10 0.000942093
19 *3121:RESET_B *344:37 5.51502e-05
20 *3163:RESET_B *3059:A0 0
21 *3165:RESET_B *3111:A0 0
22 *342:10 *3202:A 0.00018345
23 *342:10 *344:37 0.000102545
24 *342:24 *344:37 9.21456e-05
25 *342:69 *2938:A1 7.77751e-05
26 *342:69 *2938:A2 1.00073e-05
27 *342:69 *421:6 0.000101831
28 *342:71 *2938:A1 0
29 *342:71 *429:67 0
30 *2873:B1 *3160:RESET_B 5.20669e-05
31 *2878:B1 *3133:RESET_B 0
32 *2878:B1 *3165:RESET_B 0
33 *2878:B1 *342:71 0
34 *2889:B1 *342:56 0
35 *2889:B1 *342:98 0
36 *2917:D *3160:RESET_B 0.000292547
37 *2938:B1 *3165:RESET_B 0
38 *2938:B1 *342:69 1.21258e-05
39 *2938:B1 *342:71 0
40 *2939:B1 *342:71 0
41 *2995:S *342:56 0.000200098
42 *2996:A *3131:RESET_B 0.000247771
43 *2999:A0 *3133:RESET_B 0
44 *3011:S *3121:RESET_B 0.000175519
45 *3011:S *342:49 4.27935e-05
46 *3047:A1 *3133:RESET_B 0
47 *3047:A1 *342:71 0
48 *3111:A1 *3165:RESET_B 0
49 *3131:CLK *3131:RESET_B 0
50 *3157:D *342:56 0
51 *3163:D *3163:RESET_B 0.00010326
52 *109:12 *342:49 0.000345152
53 *109:12 *342:56 0.000311553
54 *153:16 *3124:RESET_B 9.39411e-05
55 *153:16 *342:24 6.57815e-05
56 *194:108 *3131:RESET_B 0.000130264
57 *194:108 *3163:RESET_B 9.59415e-05
58 *194:125 *3165:RESET_B 0
59 *195:115 *3121:RESET_B 0.000288564
60 *195:115 *342:49 0.000409502
61 *195:126 *342:49 7.67045e-05
62 *195:126 *342:56 0.000182155
63 *199:102 *342:10 0.000101545
64 *199:102 *342:24 0.000100688
65 *273:14 *3160:RESET_B 0.000100717
66 *277:90 *342:69 0
67 *277:103 *3131:RESET_B 0
68 *277:103 *3163:RESET_B 0
69 *287:6 *3160:RESET_B 0.000174389
70 *292:8 *3165:RESET_B 0
71 *335:12 *3165:RESET_B 0
*RES
1 *3202:X *342:10 23.0679 
2 *342:10 *3124:RESET_B 6.20536 
3 *342:10 *342:24 7.19643 
4 *342:24 *3160:RESET_B 10.5446 
5 *342:24 *3121:RESET_B 12.7679 
6 *3121:RESET_B *342:49 14.2411 
7 *342:49 *3123:RESET_B 4.5 
8 *342:49 *342:56 14.6964 
9 *342:56 *3157:RESET_B 4.5 
10 *3157:RESET_B *342:69 17.8482 
11 *342:69 *342:71 5.28571 
12 *342:71 *3133:RESET_B 7.66071 
13 *342:71 *3149:RESET_B 4.5 
14 *342:69 *3165:RESET_B 15.5536 
15 *342:56 *342:98 20.3214 
16 *342:98 *3131:RESET_B 9.17857 
17 *342:98 *3163:RESET_B 11.4911 
*END

*D_NET *343 0.0181578
*CONN
*I *3187:RESET_B I *D sky130_fd_sc_hd__dfrtp_1
*I *3179:RESET_B I *D sky130_fd_sc_hd__dfrtp_1
*I *3126:RESET_B I *D sky130_fd_sc_hd__dfrtp_1
*I *3176:RESET_B I *D sky130_fd_sc_hd__dfrtp_1
*I *3155:RESET_B I *D sky130_fd_sc_hd__dfrtp_1
*I *3147:RESET_B I *D sky130_fd_sc_hd__dfrtp_1
*I *3125:RESET_B I *D sky130_fd_sc_hd__dfrtp_1
*I *3120:RESET_B I *D sky130_fd_sc_hd__dfrtp_4
*I *3139:RESET_B I *D sky130_fd_sc_hd__dfrtp_1
*I *3202:A I *D sky130_fd_sc_hd__clkbuf_4
*I *3203:X O *D sky130_fd_sc_hd__clkbuf_4
*CAP
1 *3187:RESET_B 0.000183864
2 *3179:RESET_B 0
3 *3126:RESET_B 0
4 *3176:RESET_B 0.000221166
5 *3155:RESET_B 0.000123188
6 *3147:RESET_B 5.37717e-05
7 *3125:RESET_B 3.44017e-05
8 *3120:RESET_B 6.7761e-06
9 *3139:RESET_B 4.87071e-06
10 *3202:A 0.000450851
11 *3203:X 3.34985e-05
12 *343:120 0.000613281
13 *343:113 0.000815061
14 *343:85 0.000510794
15 *343:75 0.000406718
16 *343:73 0.000811841
17 *343:67 0.00111631
18 *343:57 0.000968909
19 *343:37 0.0021332
20 *343:10 0.00182901
21 *3202:A *344:49 2.46649e-05
22 *3202:A *429:18 0.00013754
23 *343:37 *2963:A0 0.000401649
24 *343:37 *2963:A1 4.70078e-05
25 *343:37 *344:49 0.000118623
26 *343:57 *2963:A1 0.000188586
27 *343:57 *428:16 5.52302e-05
28 *343:113 *427:96 0.000220909
29 *343:113 *428:27 0.000101545
30 *343:120 *427:78 8.5662e-05
31 *343:120 *427:96 7.73758e-05
32 *2887:A *3202:A 0
33 *2887:A *343:10 9.15186e-06
34 *2887:A *343:37 0
35 *2887:B *3202:A 0
36 *2917:A *3176:RESET_B 0
37 *2949:A *3202:A 0
38 *2949:B *3202:A 0
39 *2971:A *343:37 1.3701e-05
40 *3011:A1 *343:57 1.97695e-05
41 *3016:A *3202:A 0
42 *3027:S *3176:RESET_B 5.85228e-05
43 *3027:S *343:85 0.000938646
44 *3120:CLK *3176:RESET_B 3.17148e-05
45 *3120:CLK *343:73 0.000302728
46 *3120:CLK *343:75 5.33005e-05
47 *3120:CLK *343:85 3.17148e-05
48 *3120:D *343:73 5.33005e-05
49 *3147:CLK *3147:RESET_B 7.40473e-05
50 *3160:CLK *343:57 7.83587e-05
51 *3179:D *3187:RESET_B 0
52 *3220:A *3176:RESET_B 3.34672e-05
53 *109:12 *343:37 3.92854e-05
54 *128:14 *343:37 8.00806e-05
55 *153:16 *3202:A 8.51676e-05
56 *173:10 *343:113 0
57 *203:25 *3176:RESET_B 7.26841e-05
58 *206:59 *3187:RESET_B 0
59 *206:59 *343:120 0
60 *276:10 *343:85 0.000242215
61 *276:12 *343:85 0.000143797
62 *276:27 *3125:RESET_B 8.79458e-05
63 *276:27 *343:75 5.33005e-05
64 *276:70 *3155:RESET_B 9.25014e-06
65 *276:70 *343:85 0.000711082
66 *276:86 *3155:RESET_B 0
67 *318:28 *343:113 0.000340227
68 *318:55 *3139:RESET_B 2.00884e-05
69 *318:55 *343:37 0.0003004
70 *318:55 *343:57 7.5812e-05
71 *332:10 *343:113 0.000985763
72 *332:10 *343:120 0.000718407
73 *332:20 *343:57 1.57523e-05
74 *332:20 *343:113 0.000146474
75 *332:29 *343:37 2.97829e-05
76 *337:37 *3120:RESET_B 2.81497e-05
77 *337:37 *3125:RESET_B 2.44448e-05
78 *337:37 *343:57 4.13496e-05
79 *337:37 *343:67 6.17899e-05
80 *337:37 *343:73 0.000169418
81 *337:37 *343:75 1.69961e-05
82 *340:8 *3155:RESET_B 0
83 *340:8 *343:85 0
84 *342:10 *3202:A 0.00018345
*RES
1 *3203:X *343:10 14.6125 
2 *343:10 *3202:A 22.8268 
3 *343:10 *343:37 35.4732 
4 *343:37 *3139:RESET_B 0.473214 
5 *343:37 *343:57 20.5893 
6 *343:57 *3120:RESET_B 0.473214 
7 *343:57 *343:67 2.60714 
8 *343:67 *343:73 8.48214 
9 *343:73 *343:75 0.946429 
10 *343:75 *3125:RESET_B 0.883929 
11 *343:75 *343:85 18.8929 
12 *343:85 *3147:RESET_B 5.79464 
13 *343:85 *3155:RESET_B 6.44643 
14 *343:73 *3176:RESET_B 13.9821 
15 *343:67 *343:113 18.8929 
16 *343:113 *3126:RESET_B 4.5 
17 *343:113 *343:120 11.3571 
18 *343:120 *3179:RESET_B 4.5 
19 *343:120 *3187:RESET_B 7.96429 
*END

*D_NET *344 0.0167617
*CONN
*I *3201:A I *D sky130_fd_sc_hd__buf_2
*I *3203:A I *D sky130_fd_sc_hd__clkbuf_4
*I *3171:RESET_B I *D sky130_fd_sc_hd__dfrtp_1
*I *3189:RESET_B I *D sky130_fd_sc_hd__dfrtp_1
*I *3200:A I *D sky130_fd_sc_hd__clkbuf_4
*I *3204:X O *D sky130_fd_sc_hd__clkbuf_2
*CAP
1 *3201:A 9.23618e-05
2 *3203:A 2.4041e-05
3 *3171:RESET_B 0.000186361
4 *3189:RESET_B 0.00031323
5 *3200:A 0.000757402
6 *3204:X 0
7 *344:49 0.00211445
8 *344:37 0.00345791
9 *344:12 0.00299089
10 *344:4 0.000879562
11 *3171:RESET_B *389:28 0.000309966
12 *3200:A *2872:A2 0.000269662
13 *3200:A *2997:A1 4.34755e-05
14 *3200:A *3013:A0 4.10843e-05
15 *3200:A *396:21 2.24079e-05
16 *3200:A *428:42 2.24225e-05
17 *344:49 *2938:A1 0
18 *344:49 *2963:A0 0.000197984
19 *344:49 *3111:A0 6.05161e-06
20 *344:49 *421:14 3.5707e-05
21 *344:49 *429:18 3.34366e-05
22 *344:49 *429:67 0
23 *2877:B *3200:A 4.88104e-05
24 *2877:B *344:37 0.000681677
25 *2887:A *344:49 0
26 *2887:B *3203:A 1.92905e-05
27 *2887:B *344:37 4.53889e-05
28 *2897:B *3200:A 2.15245e-05
29 *2938:B1 *344:49 0
30 *2975:A1 *344:37 0
31 *2997:A0 *3200:A 8.07313e-05
32 *2997:S *3200:A 0.000143375
33 *2998:A *3200:A 5.03772e-05
34 *3011:S *344:37 0.000223599
35 *3032:A *344:49 0.000154762
36 *3050:A *344:12 0.00010096
37 *3112:A *3189:RESET_B 0
38 *3112:A *344:49 0
39 *3121:RESET_B *344:37 5.51502e-05
40 *3128:CLK *344:37 0.000195412
41 *3150:D *344:37 0
42 *3158:D *344:12 5.33433e-05
43 *3165:CLK *3171:RESET_B 0.000189463
44 *3165:D *344:49 5.97623e-05
45 *3202:A *344:49 2.46649e-05
46 *194:51 *344:12 0
47 *194:51 *344:37 0
48 *195:115 *344:37 0.000172685
49 *199:102 *344:37 0.000847017
50 *199:148 *344:37 5.41797e-05
51 *206:96 *344:49 0.000539088
52 *206:104 *344:49 0.000135242
53 *207:22 *3200:A 5.52302e-05
54 *275:27 *344:37 0.00012249
55 *275:35 *344:37 0
56 *275:37 *344:12 0
57 *275:37 *344:37 0
58 *277:123 *3171:RESET_B 0.000219385
59 *298:10 *3171:RESET_B 0.000228624
60 *298:10 *3189:RESET_B 0
61 *338:49 *344:37 0
62 *338:49 *344:49 0
63 *341:8 *3201:A 7.50473e-05
64 *341:8 *344:12 5.26663e-05
65 *342:10 *344:37 0.000102545
66 *342:24 *344:37 9.21456e-05
67 *343:37 *344:49 0.000118623
*RES
1 *3204:X *344:4 9.3 
2 *344:4 *344:12 18.4643 
3 *344:12 *3200:A 28.05 
4 *344:12 *344:37 42.8214 
5 *344:37 *344:49 49.4464 
6 *344:49 *3189:RESET_B 10.9464 
7 *3189:RESET_B *3171:RESET_B 6.98214 
8 *344:37 *3203:A 9.83571 
9 *344:4 *3201:A 11.4964 
*END

*D_NET *345 0.0148073
*CONN
*I *3169:RESET_B I *D sky130_fd_sc_hd__dfrtp_1
*I *3161:RESET_B I *D sky130_fd_sc_hd__dfrtp_1
*I *3182:RESET_B I *D sky130_fd_sc_hd__dfrtp_1
*I *3190:RESET_B I *D sky130_fd_sc_hd__dfrtp_1
*I *3174:RESET_B I *D sky130_fd_sc_hd__dfrtp_1
*I *3116:RESET_B I *D sky130_fd_sc_hd__dfrtp_4
*I *3138:RESET_B I *D sky130_fd_sc_hd__dfrtp_1
*I *3122:RESET_B I *D sky130_fd_sc_hd__dfrtp_4
*I *3166:RESET_B I *D sky130_fd_sc_hd__dfrtp_1
*I *3142:RESET_B I *D sky130_fd_sc_hd__dfrtp_1
*I *3205:X O *D sky130_fd_sc_hd__clkbuf_4
*CAP
1 *3169:RESET_B 3.99586e-06
2 *3161:RESET_B 0.000279093
3 *3182:RESET_B 7.44237e-05
4 *3190:RESET_B 0
5 *3174:RESET_B 1.4837e-05
6 *3116:RESET_B 0.000572526
7 *3138:RESET_B 0.000108741
8 *3122:RESET_B 4.89364e-05
9 *3166:RESET_B 0.000899055
10 *3142:RESET_B 6.25893e-05
11 *3205:X 0.000468989
12 *345:106 0.00109579
13 *345:70 0.00131309
14 *345:60 0.00086657
15 *345:38 0.00115106
16 *345:32 0.000530414
17 *345:28 0.00190048
18 *345:16 0.00112766
19 *345:8 0.000582797
20 *3122:RESET_B *430:10 4.50675e-05
21 *3138:RESET_B *424:28 9.11626e-05
22 *3161:RESET_B *3055:A0 0
23 *3166:RESET_B *2895:A1 0.000126905
24 *3166:RESET_B *3065:A1 6.75007e-05
25 *3166:RESET_B *406:25 0.000121916
26 *3166:RESET_B *430:102 7.27183e-05
27 *345:16 *3055:A0 0
28 *345:38 *2895:A1 0.000131481
29 *345:38 *2895:A2 2.56694e-05
30 *345:38 *406:25 3.79104e-05
31 *345:70 *430:10 0.000126639
32 *345:106 *3081:A0 0.000142317
33 *2875:B1 *3166:RESET_B 7.17832e-05
34 *2935:B1 *345:106 0.000118604
35 *3009:A1 *3116:RESET_B 0.000270923
36 *3018:A *3166:RESET_B 0.000149365
37 *3056:A *345:16 0
38 *3056:A *345:28 0
39 *3071:S *345:28 0.000103789
40 *3071:S *345:32 4.00276e-06
41 *3071:S *345:106 7.6644e-05
42 *3116:CLK *3116:RESET_B 5.52302e-05
43 *3116:D *3116:RESET_B 9.92409e-05
44 *3161:CLK *345:106 0
45 *3161:D *3161:RESET_B 5.71472e-05
46 *3169:D *345:8 0
47 *120:18 *3138:RESET_B 0.00012401
48 *194:36 *345:106 0.000439705
49 *198:33 *3166:RESET_B 0
50 *198:33 *345:38 0
51 *198:33 *345:60 0.000394705
52 *202:126 *3161:RESET_B 5.79182e-05
53 *206:181 *3161:RESET_B 0
54 *206:181 *3169:RESET_B 2.81497e-05
55 *206:181 *345:8 0.00019697
56 *206:181 *345:16 7.77751e-05
57 *206:181 *345:28 1.37051e-05
58 *206:181 *345:106 0
59 *317:6 *345:106 1.74352e-05
60 *320:25 *345:106 0.000125665
61 *320:31 *345:106 3.69697e-05
62 *327:10 *3182:RESET_B 0.000114759
63 *327:10 *345:106 6.0038e-05
64 *328:14 *345:38 0
65 *328:14 *345:106 0
66 *332:49 *3138:RESET_B 2.24724e-05
67 *336:10 *3182:RESET_B 0
68 *336:10 *345:106 0
*RES
1 *3205:X *345:8 15.6036 
2 *345:8 *345:16 6.66964 
3 *345:16 *345:28 15.1875 
4 *345:28 *345:32 1.78571 
5 *345:32 *345:38 11.6607 
6 *345:38 *3142:RESET_B 5.38393 
7 *345:38 *3166:RESET_B 20.1875 
8 *3166:RESET_B *345:60 13.9821 
9 *345:60 *3122:RESET_B 0.883929 
10 *345:60 *345:70 11.2321 
11 *345:70 *3138:RESET_B 11.5268 
12 *345:70 *3116:RESET_B 9.91964 
13 *345:32 *3174:RESET_B 0.473214 
14 *345:28 *345:106 35.375 
15 *345:106 *3190:RESET_B 4.5 
16 *345:106 *3182:RESET_B 6.14286 
17 *345:16 *3161:RESET_B 9.07143 
18 *345:8 *3169:RESET_B 0.473214 
*END

*D_NET *346 0.0147323
*CONN
*I *3135:RESET_B I *D sky130_fd_sc_hd__dfrtp_1
*I *3167:RESET_B I *D sky130_fd_sc_hd__dfrtp_1
*I *3145:RESET_B I *D sky130_fd_sc_hd__dfrtp_1
*I *3117:RESET_B I *D sky130_fd_sc_hd__dfrtp_4
*I *3129:RESET_B I *D sky130_fd_sc_hd__dfrtp_1
*I *3137:RESET_B I *D sky130_fd_sc_hd__dfrtp_1
*I *3177:RESET_B I *D sky130_fd_sc_hd__dfrtp_1
*I *3185:RESET_B I *D sky130_fd_sc_hd__dfrtp_1
*I *3153:RESET_B I *D sky130_fd_sc_hd__dfrtp_1
*I *3206:X O *D sky130_fd_sc_hd__clkbuf_4
*CAP
1 *3135:RESET_B 0.000158363
2 *3167:RESET_B 0.000157605
3 *3145:RESET_B 1.06931e-05
4 *3117:RESET_B 1.25902e-05
5 *3129:RESET_B 0.000160054
6 *3137:RESET_B 2.80706e-05
7 *3177:RESET_B 0.000143621
8 *3185:RESET_B 6.26071e-05
9 *3153:RESET_B 0.000168254
10 *3206:X 0
11 *346:111 0.000843335
12 *346:77 0.000987954
13 *346:67 0.00237691
14 *346:41 0.000887392
15 *346:33 0.00231552
16 *346:29 0.00108303
17 *346:16 0.00164116
18 *346:4 0.000279581
19 *3135:RESET_B *399:14 3.07309e-05
20 *3137:RESET_B *2991:A1 2.48941e-05
21 *3153:RESET_B *417:8 0.000136968
22 *346:67 *2921:A2 1.92384e-05
23 *346:67 *425:10 0.00018372
24 *346:77 *2991:A1 0.000108752
25 *346:111 *3067:A0 0.000153054
26 *2904:B1 *3135:RESET_B 0.000101545
27 *2940:B1 *346:41 0
28 *2940:B1 *346:67 0
29 *2992:A *346:77 5.49995e-05
30 *3024:A *3145:RESET_B 1.27739e-05
31 *3024:A *346:29 1.01277e-05
32 *3024:A *346:33 4.0552e-05
33 *3088:A *346:41 0.000156751
34 *3129:D *3129:RESET_B 1.19813e-05
35 *3153:D *346:67 7.74135e-05
36 *3177:CLK *3177:RESET_B 0.000179995
37 *3177:D *3177:RESET_B 5.01213e-05
38 *3206:A *346:16 2.84026e-05
39 *3216:A *3167:RESET_B 5.52238e-05
40 *158:12 *346:67 0
41 *195:69 *346:77 0
42 *199:63 *3129:RESET_B 0.0002008
43 *207:45 *346:41 0
44 *207:45 *346:67 0
45 *207:64 *346:67 0
46 *279:16 *346:77 0.000402495
47 *279:44 *346:77 2.89114e-05
48 *294:6 *3167:RESET_B 2.39329e-05
49 *304:10 *3177:RESET_B 0
50 *312:10 *346:41 0
51 *323:16 *3135:RESET_B 0.000148911
52 *323:16 *346:111 0.000923732
53 *333:42 *346:29 0.000223631
54 *333:57 *346:16 2.59355e-05
*RES
1 *3206:X *346:4 9.3 
2 *346:4 *3153:RESET_B 3.36607 
3 *346:4 *346:16 5.85714 
4 *346:16 *346:29 19.1071 
5 *346:29 *346:33 5.85714 
6 *346:33 *346:41 16.6429 
7 *346:41 *3185:RESET_B 0.883929 
8 *346:41 *3177:RESET_B 12.3482 
9 *346:33 *346:67 27.6607 
10 *346:67 *346:77 24.8393 
11 *346:77 *3137:RESET_B 0.473214 
12 *346:77 *3129:RESET_B 12.4732 
13 *346:67 *3117:RESET_B 0.473214 
14 *346:29 *3145:RESET_B 0.473214 
15 *346:16 *346:111 14.0893 
16 *346:111 *3167:RESET_B 7.02679 
17 *346:111 *3135:RESET_B 7.74107 
*END

*D_NET *347 0.0150992
*CONN
*I *3183:RESET_B I *D sky130_fd_sc_hd__dfrtp_1
*I *3115:RESET_B I *D sky130_fd_sc_hd__dfrtp_4
*I *3178:RESET_B I *D sky130_fd_sc_hd__dfrtp_1
*I *3154:RESET_B I *D sky130_fd_sc_hd__dfrtp_1
*I *3146:RESET_B I *D sky130_fd_sc_hd__dfrtp_1
*I *3151:RESET_B I *D sky130_fd_sc_hd__dfrtp_1
*I *3175:RESET_B I *D sky130_fd_sc_hd__dfrtp_1
*I *3143:RESET_B I *D sky130_fd_sc_hd__dfrtp_1
*I *3159:RESET_B I *D sky130_fd_sc_hd__dfrtp_1
*I *3127:RESET_B I *D sky130_fd_sc_hd__dfrtp_1
*I *3207:X O *D sky130_fd_sc_hd__clkbuf_4
*CAP
1 *3183:RESET_B 1.20447e-05
2 *3115:RESET_B 0.000261454
3 *3178:RESET_B 0.000402615
4 *3154:RESET_B 8.98513e-05
5 *3146:RESET_B 0.000430559
6 *3151:RESET_B 0
7 *3175:RESET_B 6.19071e-05
8 *3143:RESET_B 8.34092e-05
9 *3159:RESET_B 0.000336287
10 *3127:RESET_B 6.08846e-05
11 *3207:X 0.000164299
12 *347:97 0.000623119
13 *347:95 0.00103642
14 *347:91 0.000987826
15 *347:80 0.000557292
16 *347:72 0.00120848
17 *347:52 0.000940577
18 *347:18 0.0014303
19 *347:8 0.00119321
20 *347:6 0.000285224
21 *3127:RESET_B *391:8 4.27935e-05
22 *3143:RESET_B *2925:A2 9.1736e-05
23 *3146:RESET_B *2943:A2 0
24 *3146:RESET_B *418:12 7.6644e-05
25 *3154:RESET_B *418:12 1.58163e-05
26 *3175:RESET_B *348:18 9.57147e-05
27 *347:6 *3207:A 1.83136e-05
28 *347:8 *2925:A2 4.27437e-05
29 *347:18 *2925:A2 0.00041473
30 *347:18 *391:8 2.28598e-05
31 *347:18 *423:29 0
32 *347:18 *423:63 0.000106042
33 *347:72 *3099:A0 8.00806e-05
34 *347:80 *423:29 0
35 *2884:B1 *3159:RESET_B 0.000364967
36 *2884:B1 *347:18 0
37 *2924:B1 *347:52 0.000151333
38 *2924:B1 *347:72 5.56241e-05
39 *2925:B1 *347:18 8.93419e-05
40 *2926:D *347:18 1.02504e-05
41 *2942:B1 *3146:RESET_B 5.08385e-05
42 *2942:B1 *3178:RESET_B 0.000192659
43 *2942:B1 *347:97 0.000105347
44 *2946:A *3146:RESET_B 0.000125
45 *2946:A *3154:RESET_B 1.84523e-06
46 *3019:S *3143:RESET_B 0
47 *3036:A *347:80 9.56968e-05
48 *3036:A *347:91 7.80929e-05
49 *3041:A1 *3146:RESET_B 7.83659e-05
50 *3105:S *3178:RESET_B 0.00020212
51 *3183:CLK *347:80 0
52 *3183:D *347:80 7.43578e-06
53 *3225:A *3159:RESET_B 3.34366e-05
54 *3242:A *347:72 7.34868e-05
55 *182:12 *3146:RESET_B 2.95726e-05
56 *281:38 *347:95 0.000663744
57 *281:143 *347:18 1.57523e-05
58 *321:10 *3115:RESET_B 0
59 *321:10 *347:80 0.000214335
60 *321:10 *347:91 0.000177941
61 *321:12 *347:80 0.000147474
62 *323:16 *3143:RESET_B 7.68283e-05
63 *323:16 *347:52 0.000151333
64 *323:16 *347:72 0.00073318
*RES
1 *3207:X *347:6 11.0679 
2 *347:6 *347:8 0.946429 
3 *347:8 *347:18 24.8393 
4 *347:18 *3127:RESET_B 0.883929 
5 *347:18 *3159:RESET_B 15.6875 
6 *347:8 *3143:RESET_B 10.9196 
7 *347:6 *347:52 6.44643 
8 *347:52 *3175:RESET_B 5.79464 
9 *347:52 *347:72 20.6786 
10 *347:72 *347:80 11.375 
11 *347:80 *3151:RESET_B 4.5 
12 *347:80 *347:91 8.92857 
13 *347:91 *347:95 15.7143 
14 *347:95 *347:97 2.55357 
15 *347:97 *3146:RESET_B 11.7232 
16 *347:97 *3154:RESET_B 5.79464 
17 *347:95 *3178:RESET_B 13.4554 
18 *347:91 *3115:RESET_B 13.375 
19 *347:72 *3183:RESET_B 0.473214 
*END

*D_NET *348 0.0218265
*CONN
*I *3207:A I *D sky130_fd_sc_hd__clkbuf_4
*I *3186:RESET_B I *D sky130_fd_sc_hd__dfrtp_1
*I *3170:RESET_B I *D sky130_fd_sc_hd__dfrtp_1
*I *3173:RESET_B I *D sky130_fd_sc_hd__dfrtp_1
*I *3181:RESET_B I *D sky130_fd_sc_hd__dfrtp_1
*I *3162:RESET_B I *D sky130_fd_sc_hd__dfrtp_1
*I *3119:RESET_B I *D sky130_fd_sc_hd__dfrtp_4
*I *3118:RESET_B I *D sky130_fd_sc_hd__dfrtp_4
*I *3141:RESET_B I *D sky130_fd_sc_hd__dfrtp_1
*I *3130:RESET_B I *D sky130_fd_sc_hd__dfrtp_1
*I *3208:X O *D sky130_fd_sc_hd__clkbuf_4
*CAP
1 *3207:A 0.000161092
2 *3186:RESET_B 0.000944227
3 *3170:RESET_B 1.16064e-05
4 *3173:RESET_B 1.03485e-05
5 *3181:RESET_B 5.60798e-05
6 *3162:RESET_B 0
7 *3119:RESET_B 0
8 *3118:RESET_B 0.000162626
9 *3141:RESET_B 0.000539533
10 *3130:RESET_B 7.5957e-06
11 *3208:X 0
12 *348:104 0.0010782
13 *348:88 0.00104566
14 *348:86 0.00107856
15 *348:77 0.000835829
16 *348:70 0.000893249
17 *348:48 0.00172154
18 *348:30 0.00124398
19 *348:18 0.00170588
20 *348:4 0.00180425
21 *3141:RESET_B *2898:A2 4.49293e-05
22 *3141:RESET_B *405:12 0.000121573
23 *348:18 *3083:A0 0.000269664
24 *348:18 *3083:A1 2.12733e-05
25 *348:18 *394:6 4.7812e-05
26 *348:18 *394:10 0.000139281
27 *348:70 *427:16 9.97164e-05
28 *2886:A *348:48 2.37944e-05
29 *2899:B1 *348:48 0
30 *2906:A *348:48 2.05565e-05
31 *2918:B1 *348:104 8.50795e-06
32 *2922:B1 *3186:RESET_B 0
33 *2924:B1 *3207:A 0.000245184
34 *2993:A0 *348:18 0.00018101
35 *2993:S *348:18 0.00173466
36 *2994:A *3130:RESET_B 2.72654e-05
37 *2994:A *348:18 8.57818e-05
38 *2994:A *348:48 4.12423e-06
39 *3009:S *3118:RESET_B 0.000213353
40 *3009:S *3141:RESET_B 0.000862841
41 *3073:S *348:104 5.21933e-05
42 *3080:A *348:104 0.000111341
43 *3090:A *3186:RESET_B 0
44 *3096:A *348:104 0
45 *3106:A *3186:RESET_B 2.59355e-05
46 *3118:CLK *348:48 0.000372728
47 *3141:CLK *3141:RESET_B 9.09013e-05
48 *3162:D *348:77 0
49 *3170:D *3170:RESET_B 7.20217e-06
50 *3170:D *348:104 0.000101859
51 *3175:RESET_B *348:18 9.57147e-05
52 *3181:CLK *3173:RESET_B 4.85631e-05
53 *3181:CLK *3181:RESET_B 0.000264678
54 *3230:A *3186:RESET_B 0.000229772
55 *3232:A *348:104 2.19684e-05
56 *3244:A *348:18 5.33005e-05
57 *125:22 *3141:RESET_B 5.37366e-05
58 *156:16 *348:70 9.53281e-05
59 *156:16 *348:77 1.62621e-05
60 *198:63 *3181:RESET_B 6.17899e-05
61 *203:102 *3141:RESET_B 4.038e-06
62 *203:140 *348:18 0.000479275
63 *273:66 *3141:RESET_B 0.000101825
64 *280:10 *348:48 0.000311495
65 *280:44 *348:48 0.000485111
66 *300:6 *3173:RESET_B 1.91419e-05
67 *300:6 *3181:RESET_B 5.33334e-05
68 *320:8 *3186:RESET_B 0.000275101
69 *324:44 *348:18 0.000538784
70 *332:33 *3141:RESET_B 0.000204758
71 *332:97 *348:30 5.71124e-05
72 *332:97 *348:70 0.000123359
73 *347:6 *3207:A 1.83136e-05
*RES
1 *3208:X *348:4 9.3 
2 *348:4 *348:18 48.4107 
3 *348:18 *3130:RESET_B 0.473214 
4 *348:18 *348:30 5.66071 
5 *348:30 *348:48 34.1429 
6 *348:48 *3141:RESET_B 23.0982 
7 *348:48 *3118:RESET_B 3.34821 
8 *348:30 *348:70 4.07143 
9 *348:70 *3119:RESET_B 4.5 
10 *348:70 *348:77 12.5714 
11 *348:77 *3162:RESET_B 4.5 
12 *348:77 *348:86 6.14286 
13 *348:86 *348:88 0.428571 
14 *348:88 *348:104 23.1483 
15 *348:104 *3181:RESET_B 2.52679 
16 *348:104 *3173:RESET_B 0.473214 
17 *348:88 *3170:RESET_B 0.473214 
18 *348:86 *3186:RESET_B 24.2321 
19 *348:4 *3207:A 21.9964 
*END

*D_NET *349 0.000962241
*CONN
*I *2985:A0 I *D sky130_fd_sc_hd__mux2_1
*I *3209:X O *D sky130_fd_sc_hd__dlygate4sd3_1
*CAP
1 *2985:A0 0.000200188
2 *3209:X 0.000200188
3 *2985:A0 *427:96 9.30279e-05
4 *2985:S *2985:A0 1.56e-05
5 *173:10 *2985:A0 0.000153054
6 *206:59 *2985:A0 7.07908e-05
7 *318:24 *2985:A0 4.56735e-05
8 *325:41 *2985:A0 0.00018372
*RES
1 *3209:X *2985:A0 33.7429 
*END

*D_NET *350 0.00115798
*CONN
*I *2980:A0 I *D sky130_fd_sc_hd__mux2_1
*I *3220:X O *D sky130_fd_sc_hd__dlygate4sd3_1
*CAP
1 *2980:A0 0.000191616
2 *3220:X 0.000191616
3 *2980:A1 *2980:A0 6.86693e-05
4 *2980:S *2980:A0 2.59355e-05
5 *3027:S *2980:A0 0.000283458
6 *203:25 *2980:A0 5.66157e-05
7 *325:20 *2980:A0 0.000340073
*RES
1 *3220:X *2980:A0 33.7429 
*END

*D_NET *351 0.0184423
*CONN
*I *3099:A1 I *D sky130_fd_sc_hd__mux2_1
*I *3083:A1 I *D sky130_fd_sc_hd__mux2_1
*I *3051:A0 I *D sky130_fd_sc_hd__mux2_1
*I *3067:A1 I *D sky130_fd_sc_hd__mux2_1
*I *3262:X O *D sky130_fd_sc_hd__clkbuf_2
*CAP
1 *3099:A1 0.000223788
2 *3083:A1 6.81672e-05
3 *3051:A0 0.000625048
4 *3067:A1 4.16506e-05
5 *3262:X 0.00137175
6 *351:38 0.000802704
7 *351:25 0.00148651
8 *351:14 0.00183568
9 *351:12 0.00331786
10 *351:8 0.00324629
11 *3051:A0 *2904:A1 4.27935e-05
12 *3051:A0 *3051:A1 0.000229456
13 *3051:A0 *423:39 9.60875e-05
14 *3067:A1 *3067:A0 2.89114e-05
15 *3083:A1 *3083:A0 5.66971e-05
16 *3099:A1 *3099:A0 2.85321e-05
17 *351:14 *3023:A0 0.000137832
18 *351:14 *409:8 0.000126272
19 *351:25 *2904:A2 7.80714e-06
20 *351:25 *399:14 4.00025e-05
21 *2904:B1 *3051:A0 2.89016e-05
22 *2905:B1 *351:25 7.83659e-05
23 *3003:A1 *351:25 1.08359e-05
24 *3003:A1 *351:38 5.72222e-05
25 *3003:S *351:25 0.000564125
26 *3019:S *3099:A1 2.37005e-05
27 *3019:S *351:38 0.000184759
28 *3023:S *351:14 0.000124012
29 *3135:D *351:25 0.000128161
30 *3225:A *3051:A0 5.62995e-05
31 *184:20 *3051:A0 0.00028201
32 *195:69 *3051:A0 5.33334e-05
33 *195:80 *3051:A0 0.000120587
34 *199:80 *351:14 0.000202842
35 *199:80 *351:25 7.29667e-05
36 *207:45 *351:14 0
37 *207:64 *351:14 0
38 *207:64 *351:25 0
39 *207:66 *3099:A1 0.000378051
40 *207:66 *351:38 0.00103646
41 *324:8 *351:8 0.0012046
42 *348:18 *3083:A1 2.12733e-05
*RES
1 *3262:X *351:8 34.05 
2 *351:8 *351:12 34.7054 
3 *351:12 *351:14 27.7054 
4 *351:14 *3067:A1 14.3357 
5 *351:14 *351:25 9.83929 
6 *351:25 *3051:A0 27.0857 
7 *351:25 *351:38 14.6964 
8 *351:38 *3083:A1 14.7464 
9 *351:38 *3099:A1 19.3179 
*END

*D_NET *352 0.000461023
*CONN
*I *3069:A0 I *D sky130_fd_sc_hd__mux2_1
*I *3231:X O *D sky130_fd_sc_hd__dlygate4sd3_1
*CAP
1 *3069:A0 0.000158125
2 *3231:X 0.000158125
3 *2937:D *3069:A0 0.000144773
4 *3005:A1 *3069:A0 0
*RES
1 *3231:X *3069:A0 29.9929 
*END

*D_NET *353 0.000445862
*CONN
*I *3101:A0 I *D sky130_fd_sc_hd__mux2_1
*I *3239:X O *D sky130_fd_sc_hd__dlygate4sd3_1
*CAP
1 *3101:A0 0.000117929
2 *3239:X 0.000117929
3 *3239:A *3101:A0 5.33005e-05
4 *322:28 *3101:A0 0.000156703
*RES
1 *3239:X *3101:A0 20.7786 
*END

*D_NET *354 0.000997194
*CONN
*I *3081:A0 I *D sky130_fd_sc_hd__mux2_1
*I *3240:X O *D sky130_fd_sc_hd__dlygate4sd3_1
*CAP
1 *3081:A0 0.000334876
2 *3240:X 0.000334876
3 *206:181 *3081:A0 0
4 *320:25 *3081:A0 0
5 *333:18 *3081:A0 0.000185124
6 *345:106 *3081:A0 0.000142317
*RES
1 *3240:X *3081:A0 33.7429 
*END

*D_NET *355 0.0013038
*CONN
*I *2975:A0 I *D sky130_fd_sc_hd__mux2_1
*I *3241:X O *D sky130_fd_sc_hd__dlygate4sd3_1
*CAP
1 *2975:A0 0.000129162
2 *3241:X 0.000129162
3 *2927:C *2975:A0 0.00010096
4 *2949:A *2975:A0 0.000185643
5 *2949:C *2975:A0 0.000199221
6 *2975:S *2975:A0 0.00010096
7 *163:24 *2975:A0 0.000353182
8 *199:118 *2975:A0 7.49387e-06
9 *338:49 *2975:A0 9.80173e-05
*RES
1 *3241:X *2975:A0 25.0286 
*END

*D_NET *356 0.00108944
*CONN
*I *3099:A0 I *D sky130_fd_sc_hd__mux2_1
*I *3242:X O *D sky130_fd_sc_hd__dlygate4sd3_1
*CAP
1 *3099:A0 0.000439932
2 *3242:X 0.000439932
3 *3099:A1 *3099:A0 2.85321e-05
4 *3099:S *3099:A0 0.00010096
5 *347:72 *3099:A0 8.00806e-05
*RES
1 *3242:X *3099:A0 35.5464 
*END

*D_NET *357 0.000604175
*CONN
*I *3085:A0 I *D sky130_fd_sc_hd__mux2_1
*I *3243:X O *D sky130_fd_sc_hd__dlygate4sd3_1
*CAP
1 *3085:A0 0.00021667
2 *3243:X 0.00021667
3 *3085:A0 *3085:A1 1.92789e-05
4 *3085:A0 *428:27 3.92854e-05
5 *3085:S *3085:A0 3.39053e-05
6 *166:8 *3085:A0 7.83659e-05
*RES
1 *3243:X *3085:A0 30.8143 
*END

*D_NET *358 0.00101689
*CONN
*I *3083:A0 I *D sky130_fd_sc_hd__mux2_1
*I *3244:X O *D sky130_fd_sc_hd__dlygate4sd3_1
*CAP
1 *3083:A0 0.000345266
2 *3244:X 0.000345266
3 *3083:A1 *3083:A0 5.66971e-05
4 *348:18 *3083:A0 0.000269664
*RES
1 *3244:X *3083:A0 24.475 
*END

*D_NET *359 0.000390633
*CONN
*I *3107:A0 I *D sky130_fd_sc_hd__mux2_1
*I *3210:X O *D sky130_fd_sc_hd__dlygate4sd3_1
*CAP
1 *3107:A0 7.66145e-05
2 *3210:X 7.66145e-05
3 *3107:A0 *3107:A1 0.000185643
4 *3107:S *3107:A0 2.89016e-05
5 *206:96 *3107:A0 2.28598e-05
*RES
1 *3210:X *3107:A0 20.7786 
*END

*D_NET *360 0.00044725
*CONN
*I *3093:A0 I *D sky130_fd_sc_hd__mux2_1
*I *3211:X O *D sky130_fd_sc_hd__dlygate4sd3_1
*CAP
1 *3093:A0 5.68534e-05
2 *3211:X 5.68534e-05
3 *3093:A0 *3093:A1 0.00014285
4 *3093:S *3093:A0 0.00014183
5 *3211:A *3093:A0 4.88637e-05
*RES
1 *3211:X *3093:A0 20.7786 
*END

*D_NET *361 0.00102185
*CONN
*I *2970:A1 I *D sky130_fd_sc_hd__mux2_1
*I *3212:X O *D sky130_fd_sc_hd__dlygate4sd3_1
*CAP
1 *2970:A1 0.000333133
2 *3212:X 0.000333133
3 *2975:A1 *2970:A1 0.000245773
4 *195:115 *2970:A1 0
5 *195:126 *2970:A1 0
6 *338:49 *2970:A1 0.000109809
*RES
1 *3212:X *2970:A1 33.1536 
*END

*D_NET *362 0.0187925
*CONN
*I *3085:A1 I *D sky130_fd_sc_hd__mux2_1
*I *3053:A0 I *D sky130_fd_sc_hd__mux2_1
*I *3069:A1 I *D sky130_fd_sc_hd__mux2_1
*I *3101:A1 I *D sky130_fd_sc_hd__mux2_1
*I *3263:X O *D sky130_fd_sc_hd__clkbuf_2
*CAP
1 *3085:A1 5.38957e-05
2 *3053:A0 0.000453974
3 *3069:A1 1.99857e-05
4 *3101:A1 0
5 *3263:X 0
6 *362:33 0.000883703
7 *362:24 0.000689353
8 *362:16 0.00313315
9 *362:8 0.00623987
10 *362:6 0.00344022
11 *362:24 *424:107 0.000589011
12 *2913:B1 *362:24 0.000248694
13 *2917:C *362:24 7.83659e-05
14 *2927:B *362:24 6.74911e-05
15 *3069:S *3053:A0 5.71472e-05
16 *3085:A0 *3085:A1 1.92789e-05
17 *3101:S *362:33 0.000397079
18 *3176:CLK *362:16 1.72894e-05
19 *149:12 *362:24 0.00075428
20 *166:8 *362:24 0
21 *194:108 *3053:A0 0
22 *206:57 *362:33 0.000168334
23 *273:26 *362:24 0.000165869
24 *303:8 *362:16 4.53889e-05
25 *318:14 *362:8 0
26 *322:28 *3053:A0 4.14279e-05
27 *322:28 *3069:A1 1.04232e-05
28 *322:28 *362:24 5.52238e-05
29 *322:28 *362:33 0.00116302
30 *338:32 *362:8 0
*RES
1 *3263:X *362:6 13.8 
2 *362:6 *362:8 63.2679 
3 *362:8 *362:16 37.5179 
4 *362:16 *362:24 21.5 
5 *362:24 *3101:A1 9.3 
6 *362:24 *362:33 12.0536 
7 *362:33 *3069:A1 9.72857 
8 *362:33 *3053:A0 26.7643 
9 *362:16 *3085:A1 10.2464 
*END

*D_NET *363 0.000405293
*CONN
*I *3109:A0 I *D sky130_fd_sc_hd__mux2_1
*I *3213:X O *D sky130_fd_sc_hd__dlygate4sd3_1
*CAP
1 *3109:A0 9.17803e-05
2 *3213:X 9.17803e-05
3 *3109:S *3109:A0 0.000111242
4 *3110:A *3109:A0 5.71472e-05
5 *3213:A *3109:A0 5.33433e-05
*RES
1 *3213:X *3109:A0 20.7786 
*END

*D_NET *364 0.00105129
*CONN
*I *3097:A0 I *D sky130_fd_sc_hd__mux2_1
*I *3214:X O *D sky130_fd_sc_hd__dlygate4sd3_1
*CAP
1 *3097:A0 0.000184367
2 *3214:X 0.000184367
3 *2915:B1 *3097:A0 1.17968e-05
4 *3097:A1 *3097:A0 6.71657e-05
5 *3228:A *3097:A0 0.000181803
6 *202:106 *3097:A0 0.00010096
7 *202:126 *3097:A0 9.79896e-05
8 *206:146 *3097:A0 0.000176588
9 *278:28 *3097:A0 4.62539e-05
*RES
1 *3214:X *3097:A0 32.9571 
*END

*D_NET *365 0.00137529
*CONN
*I *3077:A0 I *D sky130_fd_sc_hd__mux2_1
*I *3215:X O *D sky130_fd_sc_hd__dlygate4sd3_1
*CAP
1 *3077:A0 0.000457893
2 *3215:X 0.000457893
3 *3077:A0 *390:14 0
4 *3077:A0 *390:18 0.000311088
5 *3172:RESET_B *3077:A0 3.25247e-05
6 *198:6 *3077:A0 2.36643e-05
7 *198:19 *3077:A0 1.56e-05
8 *206:146 *3077:A0 7.66256e-05
*RES
1 *3215:X *3077:A0 35.3679 
*END

*D_NET *366 0.000987664
*CONN
*I *3067:A0 I *D sky130_fd_sc_hd__mux2_1
*I *3216:X O *D sky130_fd_sc_hd__dlygate4sd3_1
*CAP
1 *3067:A0 0.000353328
2 *3216:X 0.000353328
3 *3067:A1 *3067:A0 2.89114e-05
4 *3067:S *3067:A0 9.90431e-05
5 *346:111 *3067:A0 0.000153054
*RES
1 *3216:X *3067:A0 34.6 
*END

*D_NET *367 0.000544411
*CONN
*I *3065:A1 I *D sky130_fd_sc_hd__mux2_1
*I *3217:X O *D sky130_fd_sc_hd__dlygate4sd3_1
*CAP
1 *3065:A1 0.000140438
2 *3217:X 0.000140438
3 *3065:A0 *3065:A1 0.000141036
4 *3166:RESET_B *3065:A1 6.75007e-05
5 *194:82 *3065:A1 5.49995e-05
*RES
1 *3217:X *3065:A1 31.0286 
*END

*D_NET *368 0.0004443
*CONN
*I *3105:A0 I *D sky130_fd_sc_hd__mux2_1
*I *3218:X O *D sky130_fd_sc_hd__dlygate4sd3_1
*CAP
1 *3105:A0 0.000108381
2 *3218:X 0.000108381
3 *3218:A *3105:A0 0.000227539
*RES
1 *3218:X *3105:A0 20.7786 
*END

*D_NET *369 0.00108338
*CONN
*I *3103:A0 I *D sky130_fd_sc_hd__mux2_1
*I *3219:X O *D sky130_fd_sc_hd__dlygate4sd3_1
*CAP
1 *3103:A0 0.000395664
2 *3219:X 0.000395664
3 *2920:B1 *3103:A0 0
4 *2940:B1 *3103:A0 5.52302e-05
5 *207:39 *3103:A0 0.000236824
6 *279:88 *3103:A0 0
7 *304:10 *3103:A0 0
*RES
1 *3219:X *3103:A0 34.7964 
*END

*D_NET *370 0.000863982
*CONN
*I *3053:A1 I *D sky130_fd_sc_hd__mux2_1
*I *3221:X O *D sky130_fd_sc_hd__dlygate4sd3_1
*CAP
1 *3053:A1 0.000371854
2 *3221:X 0.000371854
3 *3053:S *3053:A1 5.41494e-05
4 *194:93 *3053:A1 6.61256e-05
*RES
1 *3221:X *3053:A1 32.4571 
*END

*D_NET *371 0.000916472
*CONN
*I *3059:A1 I *D sky130_fd_sc_hd__mux2_1
*I *3222:X O *D sky130_fd_sc_hd__dlygate4sd3_1
*CAP
1 *3059:A1 0.000323139
2 *3222:X 0.000323139
3 *3059:A1 *3059:A0 6.05161e-06
4 *2869:B1 *3059:A1 3.6337e-05
5 *2889:B1 *3059:A1 7.83659e-05
6 *194:108 *3059:A1 1.74352e-05
7 *194:125 *3059:A1 0.000132004
*RES
1 *3222:X *3059:A1 32.4571 
*END

*D_NET *372 0.000253306
*CONN
*I *3087:A0 I *D sky130_fd_sc_hd__mux2_1
*I *3223:X O *D sky130_fd_sc_hd__dlygate4sd3_1
*CAP
1 *3087:A0 9.56394e-05
2 *3223:X 9.56394e-05
3 *3087:A0 *373:14 2.27416e-05
4 *304:10 *3087:A0 0
5 *312:10 *3087:A0 3.92854e-05
*RES
1 *3223:X *3087:A0 29.1714 
*END

*D_NET *373 0.0104524
*CONN
*I *3087:A1 I *D sky130_fd_sc_hd__mux2_1
*I *3103:A1 I *D sky130_fd_sc_hd__mux2_1
*I *3071:A1 I *D sky130_fd_sc_hd__mux2_1
*I *3055:A0 I *D sky130_fd_sc_hd__mux2_1
*I *3264:X O *D sky130_fd_sc_hd__dlymetal6s2s_1
*CAP
1 *3087:A1 0
2 *3103:A1 0
3 *3071:A1 0
4 *3055:A0 0.000418413
5 *3264:X 0.00117808
6 *373:20 0.00139409
7 *373:16 0.00121226
8 *373:14 0.00200028
9 *373:10 0.00294178
10 *3055:A0 *3055:A1 5.52238e-05
11 *373:20 *3071:A0 0.000122091
12 *3055:S *3055:A0 2.44318e-05
13 *3056:A *3055:A0 0
14 *3072:A *3055:A0 0
15 *3087:A0 *373:14 2.27416e-05
16 *3161:RESET_B *3055:A0 0
17 *3224:A *373:20 9.76689e-05
18 *202:126 *373:14 5.7661e-06
19 *202:126 *373:16 5.63043e-05
20 *202:126 *373:20 0.000274144
21 *324:10 *3055:A0 0.000649132
22 *345:16 *3055:A0 0
*RES
1 *3264:X *373:10 39.9786 
2 *373:10 *373:14 29.0893 
3 *373:14 *373:16 3 
4 *373:16 *373:20 13.2857 
5 *373:20 *3055:A0 27.5679 
6 *373:20 *3071:A1 9.3 
7 *373:16 *3103:A1 9.3 
8 *373:14 *3087:A1 9.3 
*END

*D_NET *374 0.000429738
*CONN
*I *3071:A0 I *D sky130_fd_sc_hd__mux2_1
*I *3224:X O *D sky130_fd_sc_hd__dlygate4sd3_1
*CAP
1 *3071:A0 0.000102754
2 *3224:X 0.000102754
3 *3071:S *3071:A0 9.60875e-05
4 *202:126 *3071:A0 6.05161e-06
5 *373:20 *3071:A0 0.000122091
*RES
1 *3224:X *3071:A0 21.1893 
*END

*D_NET *375 0.000526417
*CONN
*I *3051:A1 I *D sky130_fd_sc_hd__mux2_1
*I *3225:X O *D sky130_fd_sc_hd__dlygate4sd3_1
*CAP
1 *3051:A1 0.000148481
2 *3225:X 0.000148481
3 *3051:A0 *3051:A1 0.000229456
*RES
1 *3225:X *3051:A1 20.7786 
*END

*D_NET *376 0.000526919
*CONN
*I *3061:A1 I *D sky130_fd_sc_hd__mux2_1
*I *3226:X O *D sky130_fd_sc_hd__dlygate4sd3_1
*CAP
1 *3061:A1 3.57006e-05
2 *3226:X 3.57006e-05
3 *3061:A1 *3061:A0 5.71472e-05
4 *3226:A *3061:A1 0.000122159
5 *194:36 *3061:A1 0.000276211
*RES
1 *3226:X *3061:A1 21.1893 
*END

*D_NET *377 0.00114264
*CONN
*I *3111:A0 I *D sky130_fd_sc_hd__mux2_1
*I *3227:X O *D sky130_fd_sc_hd__dlygate4sd3_1
*CAP
1 *3111:A0 0.000370823
2 *3227:X 0.000370823
3 *2938:B1 *3111:A0 0.000196269
4 *3111:A1 *3111:A0 0.000110029
5 *3165:RESET_B *3111:A0 0
6 *3227:A *3111:A0 7.83659e-05
7 *206:96 *3111:A0 1.02821e-05
8 *344:49 *3111:A0 6.05161e-06
*RES
1 *3227:X *3111:A0 33.6536 
*END

*D_NET *378 0.000476242
*CONN
*I *3113:A0 I *D sky130_fd_sc_hd__mux2_1
*I *3228:X O *D sky130_fd_sc_hd__dlygate4sd3_1
*CAP
1 *3113:A0 3.85346e-05
2 *3228:X 3.85346e-05
3 *3228:A *3113:A0 0.000229456
4 *206:150 *3113:A0 6.87574e-05
5 *206:181 *3113:A0 0.00010096
*RES
1 *3228:X *3113:A0 20.7786 
*END

*D_NET *379 0.000926616
*CONN
*I *3055:A1 I *D sky130_fd_sc_hd__mux2_1
*I *3229:X O *D sky130_fd_sc_hd__dlygate4sd3_1
*CAP
1 *3055:A1 0.000408084
2 *3229:X 0.000408084
3 *3055:A0 *3055:A1 5.52238e-05
4 *3055:S *3055:A1 5.52238e-05
5 *324:10 *3055:A1 0
*RES
1 *3229:X *3055:A1 34.6 
*END

*D_NET *380 0.000399585
*CONN
*I *3057:A1 I *D sky130_fd_sc_hd__mux2_1
*I *3230:X O *D sky130_fd_sc_hd__dlygate4sd3_1
*CAP
1 *3057:A1 0.000127873
2 *3230:X 0.000127873
3 *2902:B1 *3057:A1 7.83659e-05
4 *3057:S *3057:A1 5.52238e-05
5 *3186:CLK *3057:A1 0
6 *3236:A *3057:A1 1.02504e-05
*RES
1 *3230:X *3057:A1 29.5821 
*END

*D_NET *381 0.000553743
*CONN
*I *3095:A0 I *D sky130_fd_sc_hd__mux2_1
*I *3232:X O *D sky130_fd_sc_hd__dlygate4sd3_1
*CAP
1 *3095:A0 0.000104506
2 *3232:X 0.000104506
3 *3095:A0 *389:28 9.80173e-05
4 *202:73 *3095:A0 9.60875e-05
5 *319:16 *3095:A0 0.000150625
*RES
1 *3232:X *3095:A0 30.4929 
*END

*D_NET *382 0.000443308
*CONN
*I *3089:A0 I *D sky130_fd_sc_hd__mux2_1
*I *3233:X O *D sky130_fd_sc_hd__dlygate4sd3_1
*CAP
1 *3089:A0 0.000106926
2 *3233:X 0.000106926
3 *3089:A0 *389:18 0.000229456
*RES
1 *3233:X *3089:A0 20.7786 
*END

*D_NET *383 0.000394969
*CONN
*I *3075:A0 I *D sky130_fd_sc_hd__mux2_1
*I *3234:X O *D sky130_fd_sc_hd__dlygate4sd3_1
*CAP
1 *3075:A0 8.42269e-05
2 *3234:X 8.42269e-05
3 *3075:A0 *389:32 4.22431e-05
4 *3075:A0 *389:34 4.48647e-05
5 *3075:A0 *389:38 5.65955e-05
6 *198:63 *3075:A0 2.78579e-05
7 *206:96 *3075:A0 5.49544e-05
*RES
1 *3234:X *3075:A0 20.7786 
*END

*D_NET *384 0.0122377
*CONN
*I *3089:A1 I *D sky130_fd_sc_hd__mux2_1
*I *3105:A1 I *D sky130_fd_sc_hd__mux2_1
*I *3073:A1 I *D sky130_fd_sc_hd__mux2_1
*I *3057:A0 I *D sky130_fd_sc_hd__mux2_1
*I *3265:X O *D sky130_fd_sc_hd__dlymetal6s2s_1
*CAP
1 *3089:A1 4.41581e-05
2 *3105:A1 0.000100173
3 *3073:A1 0
4 *3057:A0 0.000380443
5 *3265:X 0.00243632
6 *384:40 0.00107137
7 *384:27 0.00101686
8 *384:10 0.0020308
9 *384:6 0.00399686
10 *3057:A0 *3073:A0 0
11 *384:10 *3073:A0 0
12 *384:27 *3073:A0 5.71472e-05
13 *384:40 *3073:A0 5.52238e-05
14 pattern_match[0] *384:6 3.18676e-05
15 *2922:B1 *3105:A1 0
16 *2942:B1 *3105:A1 1.02504e-05
17 *3057:S *3057:A0 0.00014183
18 *3073:S *384:27 7.15962e-05
19 *3073:S *384:40 1.39726e-05
20 *3074:A *384:27 3.47783e-05
21 *3105:S *3089:A1 7.83659e-05
22 *3105:S *3105:A1 0.000247771
23 *3186:CLK *384:40 0.000153273
24 *3186:D *384:40 8.27184e-06
25 *3230:A *3057:A0 7.8327e-05
26 *3233:A *3089:A1 0
27 *3233:A *3105:A1 0
28 *3236:A *3057:A0 0
29 *3236:A *384:10 0
30 *305:8 *384:40 5.05484e-05
31 *313:8 *3105:A1 0.000127439
*RES
1 *3265:X *384:6 49.675 
2 *384:6 *384:10 32.8571 
3 *384:10 *3057:A0 20.1393 
4 *384:10 *384:27 6.69643 
5 *384:27 *3073:A1 9.3 
6 *384:27 *384:40 16.6786 
7 *384:40 *3105:A1 16.9607 
8 *384:40 *3089:A1 14.8357 
*END

*D_NET *385 0.000425506
*CONN
*I *3063:A1 I *D sky130_fd_sc_hd__mux2_1
*I *3235:X O *D sky130_fd_sc_hd__dlygate4sd3_1
*CAP
1 *3063:A1 0.000119419
2 *3235:X 0.000119419
3 *3057:S *3063:A1 0.000131439
4 *194:125 *3063:A1 5.52302e-05
*RES
1 *3235:X *3063:A1 20.3679 
*END

*D_NET *386 0.000422795
*CONN
*I *3073:A0 I *D sky130_fd_sc_hd__mux2_1
*I *3236:X O *D sky130_fd_sc_hd__dlygate4sd3_1
*CAP
1 *3073:A0 0.000116029
2 *3236:X 0.000116029
3 *3057:A0 *3073:A0 0
4 *3236:A *3073:A0 7.83659e-05
5 *384:10 *3073:A0 0
6 *384:27 *3073:A0 5.71472e-05
7 *384:40 *3073:A0 5.52238e-05
*RES
1 *3236:X *3073:A0 29.5821 
*END

*D_NET *387 0.00134339
*CONN
*I *3079:A0 I *D sky130_fd_sc_hd__mux2_1
*I *3237:X O *D sky130_fd_sc_hd__dlygate4sd3_1
*CAP
1 *3079:A0 0.000123766
2 *3237:X 0.000123766
3 *3073:S *3079:A0 0.000577797
4 *3170:CLK *3079:A0 4.18895e-05
5 *3173:CLK *3079:A0 0.000150625
6 *280:93 *3079:A0 0.000318107
7 *319:22 *3079:A0 7.43578e-06
*RES
1 *3237:X *3079:A0 33.6714 
*END

*D_NET *388 0.000450189
*CONN
*I *3091:A0 I *D sky130_fd_sc_hd__mux2_1
*I *3238:X O *D sky130_fd_sc_hd__dlygate4sd3_1
*CAP
1 *3091:A0 0.000104204
2 *3238:X 0.000104204
3 *3163:CLK *3091:A0 6.05161e-06
4 *202:44 *3091:A0 6.74911e-05
5 *202:71 *3091:A0 1.76135e-05
6 *277:116 *3091:A0 0.000150625
*RES
1 *3238:X *3091:A0 30.0821 
*END

*D_NET *389 0.0187666
*CONN
*I *3059:A0 I *D sky130_fd_sc_hd__mux2_1
*I *3075:A1 I *D sky130_fd_sc_hd__mux2_1
*I *3107:A1 I *D sky130_fd_sc_hd__mux2_1
*I *3091:A1 I *D sky130_fd_sc_hd__mux2_1
*I *3266:X O *D sky130_fd_sc_hd__clkbuf_2
*CAP
1 *3059:A0 0.000342769
2 *3075:A1 0
3 *3107:A1 0.000670002
4 *3091:A1 8.63814e-05
5 *3266:X 0.00148417
6 *389:38 0.00101722
7 *389:34 0.000330849
8 *389:32 0.000787612
9 *389:28 0.00295584
10 *389:18 0.00375974
11 *389:10 0.00266289
12 *2869:B1 *3059:A0 0
13 *2889:B1 *3059:A0 0
14 *3059:A1 *3059:A0 6.05161e-06
15 *3075:A0 *389:32 4.22431e-05
16 *3075:A0 *389:34 4.48647e-05
17 *3075:A0 *389:38 5.65955e-05
18 *3076:A *3059:A0 0
19 *3076:A *3107:A1 0
20 *3089:A0 *389:18 0.000229456
21 *3089:S *389:18 0.00049041
22 *3089:S *389:28 0.000915102
23 *3090:A *389:18 7.77751e-05
24 *3091:S *3091:A1 2.89114e-05
25 *3095:A0 *389:28 9.80173e-05
26 *3107:A0 *3107:A1 0.000185643
27 *3163:RESET_B *3059:A0 0
28 *3165:CLK *389:28 0.000200472
29 *3171:RESET_B *389:28 0.000309966
30 *3210:A *3107:A1 5.33433e-05
31 *3233:A *389:18 0.000183331
32 *3236:A *389:28 0.000230482
33 *194:108 *3059:A0 5.68722e-05
34 *202:71 *389:28 5.74499e-06
35 *202:73 *389:28 0.000777413
36 *206:96 *3059:A0 8.07951e-05
37 *206:96 *3107:A1 0.000340315
38 *206:96 *389:32 0.000184926
39 *277:116 *3107:A1 3.34672e-05
40 *298:10 *389:28 3.69697e-05
41 *321:10 *389:10 0
*RES
1 *3266:X *389:10 45.1393 
2 *389:10 *389:18 22.4643 
3 *389:18 *389:28 48.9286 
4 *389:28 *389:32 9.55357 
5 *389:32 *389:34 0.946429 
6 *389:34 *389:38 4.25 
7 *389:38 *3091:A1 10.6571 
8 *389:38 *3107:A1 27.9786 
9 *389:34 *3075:A1 9.3 
10 *389:32 *3059:A0 24.425 
*END

*D_NET *390 0.0224212
*CONN
*I *3061:A0 I *D sky130_fd_sc_hd__mux2_1
*I *3077:A1 I *D sky130_fd_sc_hd__mux2_1
*I *3093:A1 I *D sky130_fd_sc_hd__mux2_1
*I *3109:A1 I *D sky130_fd_sc_hd__mux2_1
*I *3267:X O *D sky130_fd_sc_hd__clkbuf_2
*CAP
1 *3061:A0 0.000160426
2 *3077:A1 0
3 *3093:A1 0.000184775
4 *3109:A1 6.0746e-05
5 *3267:X 0
6 *390:26 0.00152135
7 *390:18 0.00133738
8 *390:14 0.00205004
9 *390:12 0.00281969
10 *390:8 0.00317458
11 *390:4 0.00218295
12 *2891:B1 *390:26 1.9774e-05
13 *2931:B1 *3093:A1 8.359e-05
14 *3061:A1 *3061:A0 5.71472e-05
15 *3077:A0 *390:14 0
16 *3077:A0 *390:18 0.000311088
17 *3093:A0 *3093:A1 0.00014285
18 *3109:S *3109:A1 0.000140693
19 *3109:S *390:26 0.000283474
20 *3226:A *3061:A0 0.00018077
21 *3267:A *390:8 0.000142157
22 *194:20 *3061:A0 0.000199482
23 *194:20 *390:14 8.64227e-05
24 *194:36 *3061:A0 1.69961e-05
25 *198:6 *390:18 9.83442e-05
26 *198:19 *3061:A0 2.16719e-05
27 *198:19 *390:18 0.000211103
28 *202:106 *3061:A0 1.98839e-05
29 *206:8 *390:26 0.000624797
30 *206:146 *390:26 0.00101068
31 *275:70 *390:26 2.56601e-05
32 *291:10 *3061:A0 0.000148903
33 *324:8 *390:8 0.00325225
34 *327:6 *390:12 0.00185155
35 *339:56 *3093:A1 0
*RES
1 *3267:X *390:4 9.3 
2 *390:4 *390:8 48.5 
3 *390:8 *390:12 25.1607 
4 *390:12 *390:14 33.5179 
5 *390:14 *390:18 7.5 
6 *390:18 *390:26 28.2321 
7 *390:26 *3109:A1 10.9786 
8 *390:26 *3093:A1 21.9071 
9 *390:18 *3077:A1 9.3 
10 *390:14 *3061:A0 18.8357 
*END

*D_NET *391 0.00246941
*CONN
*I *2884:A1 I *D sky130_fd_sc_hd__o21ai_1
*I *2987:A1 I *D sky130_fd_sc_hd__mux2_1
*I *2885:A1 I *D sky130_fd_sc_hd__a21o_1
*I *3127:Q O *D sky130_fd_sc_hd__dfrtp_1
*CAP
1 *2884:A1 6.70169e-05
2 *2987:A1 0.000134557
3 *2885:A1 6.99187e-05
4 *3127:Q 0.000236967
5 *391:16 0.000331903
6 *391:8 0.000431411
7 *2884:A1 *2884:A2 0.000197984
8 *2885:A1 *2953:A1 2.44318e-05
9 *2885:A1 *423:69 2.14658e-05
10 *2987:A1 *423:69 6.05161e-06
11 *391:8 *423:63 0.00025051
12 *391:16 *2884:A2 4.80729e-05
13 *391:16 *2953:A1 1.11093e-05
14 *391:16 *423:69 0.000125731
15 *2885:B1 *2884:A1 0.00014279
16 *2885:B1 *2885:A1 1.33343e-05
17 *2885:B1 *391:16 0.000197984
18 *2987:A0 *2987:A1 5.71472e-05
19 *3127:RESET_B *391:8 4.27935e-05
20 *163:20 *2884:A1 0
21 *177:10 *391:16 3.53761e-05
22 *347:18 *391:8 2.28598e-05
*RES
1 *3127:Q *391:8 18.8536 
2 *391:8 *391:16 8.01786 
3 *391:16 *2885:A1 10.675 
4 *391:16 *2987:A1 11.4786 
5 *391:8 *2884:A1 16.3536 
*END

*D_NET *392 0.00198105
*CONN
*I *2873:A1 I *D sky130_fd_sc_hd__o21ai_1
*I *2874:A1 I *D sky130_fd_sc_hd__a21o_1
*I *2989:A1 I *D sky130_fd_sc_hd__mux2_1
*I *3128:Q O *D sky130_fd_sc_hd__dfrtp_1
*CAP
1 *2873:A1 2.73288e-05
2 *2874:A1 0.00010375
3 *2989:A1 0
4 *3128:Q 0.000125475
5 *392:27 0.000608807
6 *392:12 0.000603203
7 *2873:A1 *424:49 0
8 *392:12 *424:49 7.6997e-05
9 *392:27 *424:49 0
10 *2873:B1 *2873:A1 1.00332e-05
11 *2874:B1 *2874:A1 0.000137983
12 *2989:A0 *392:12 4.87953e-05
13 *2989:A0 *392:27 3.1367e-05
14 *2989:S *392:27 4.34515e-05
15 *3005:A1 *392:12 0
16 *3069:S *392:27 3.0052e-05
17 *194:93 *2873:A1 2.6304e-05
18 *194:93 *392:27 0.000107502
*RES
1 *3128:Q *392:12 20.2821 
2 *392:12 *2989:A1 9.3 
3 *392:12 *392:27 12.3214 
4 *392:27 *2874:A1 15.1571 
5 *392:27 *2873:A1 14.5321 
*END

*D_NET *393 0.00378245
*CONN
*I *2881:A1 I *D sky130_fd_sc_hd__a21o_1
*I *2991:A1 I *D sky130_fd_sc_hd__mux2_1
*I *2880:A1 I *D sky130_fd_sc_hd__o21ai_1
*I *3129:Q O *D sky130_fd_sc_hd__dfrtp_1
*CAP
1 *2881:A1 0.000427848
2 *2991:A1 0.000377545
3 *2880:A1 0.000106706
4 *3129:Q 7.18881e-05
5 *393:23 0.00111661
6 *393:6 0.00048981
7 *2991:A1 *401:12 0.000122554
8 *2881:B1 *2880:A1 0.000195119
9 *2900:B1 *2991:A1 3.2033e-05
10 *2900:B1 *393:23 3.54498e-05
11 *2992:A *2991:A1 9.75679e-05
12 *3137:D *2881:A1 3.81751e-05
13 *3137:D *393:23 2.53112e-06
14 *3137:RESET_B *2991:A1 2.48941e-05
15 *3196:A *2880:A1 6.42449e-05
16 *199:63 *393:6 3.70077e-05
17 *199:63 *393:23 8.76551e-05
18 *273:76 *2880:A1 2.76148e-05
19 *320:14 *2881:A1 0.000224575
20 *323:32 *2991:A1 5.50052e-05
21 *324:10 *2880:A1 3.88664e-05
22 *346:77 *2991:A1 0.000108752
*RES
1 *3129:Q *393:6 10.2464 
2 *393:6 *2880:A1 21.7643 
3 *393:6 *393:23 9.03571 
4 *393:23 *2991:A1 21.7286 
5 *393:23 *2881:A1 20.05 
*END

*D_NET *394 0.00136691
*CONN
*I *2882:A1 I *D sky130_fd_sc_hd__o21ai_1
*I *2993:A1 I *D sky130_fd_sc_hd__mux2_1
*I *2883:A1 I *D sky130_fd_sc_hd__a21o_1
*I *3130:Q O *D sky130_fd_sc_hd__dfrtp_1
*CAP
1 *2882:A1 0.00011158
2 *2993:A1 0
3 *2883:A1 0.000104646
4 *3130:Q 9.83363e-05
5 *394:10 0.000203398
6 *394:6 0.000308668
7 *2883:A1 *426:59 0.000144732
8 *2882:B1 *2882:A1 1.00477e-05
9 *2883:B1 *2882:A1 3.6337e-05
10 *2883:B1 *2883:A1 0.000146254
11 *124:16 *2883:A1 1.58163e-05
12 *348:18 *394:6 4.7812e-05
13 *348:18 *394:10 0.000139281
*RES
1 *3130:Q *394:6 10.6571 
2 *394:6 *394:10 2.08929 
3 *394:10 *2883:A1 20.7821 
4 *394:10 *2993:A1 9.3 
5 *394:6 *2882:A1 20.2464 
*END

*D_NET *395 0.00135999
*CONN
*I *2870:A1 I *D sky130_fd_sc_hd__a21o_1
*I *2869:A1 I *D sky130_fd_sc_hd__o21ai_1
*I *2995:A1 I *D sky130_fd_sc_hd__mux2_1
*I *3131:Q O *D sky130_fd_sc_hd__dfrtp_1
*CAP
1 *2870:A1 6.49453e-05
2 *2869:A1 0.000206219
3 *2995:A1 0.000184763
4 *3131:Q 0
5 *395:6 0.000426149
6 *395:4 0.000100112
7 *2869:A1 *427:44 3.17163e-05
8 *2869:A1 *427:70 8.08873e-05
9 *2869:A1 *427:72 2.84026e-05
10 *2870:A1 *427:32 5.48388e-05
11 *2870:B1 *2869:A1 0
12 *3047:S *2870:A1 1.15172e-05
13 *3047:S *2995:A1 4.49517e-05
14 *3047:S *395:6 1.40415e-05
15 *194:108 *2869:A1 0
16 *194:108 *2995:A1 8.00806e-05
17 *277:90 *2869:A1 3.13687e-05
*RES
1 *3131:Q *395:4 9.3 
2 *395:4 *395:6 0.535714 
3 *395:6 *2995:A1 21.1036 
4 *395:6 *2869:A1 22.425 
5 *395:4 *2870:A1 10.2464 
*END

*D_NET *396 0.0022435
*CONN
*I *2872:A1 I *D sky130_fd_sc_hd__a21o_1
*I *2871:A1 I *D sky130_fd_sc_hd__o21ai_1
*I *2997:A1 I *D sky130_fd_sc_hd__mux2_1
*I *3132:Q O *D sky130_fd_sc_hd__dfrtp_1
*CAP
1 *2872:A1 0
2 *2871:A1 0.000164944
3 *2997:A1 5.77798e-05
4 *3132:Q 0.000140818
5 *396:21 0.000303254
6 *396:12 0.000336907
7 *2997:A1 *3013:A0 9.41642e-05
8 *2997:A1 *428:42 0.000267545
9 *396:12 *2891:A2 6.05161e-06
10 *396:12 *404:25 0.000148911
11 *396:12 *428:46 1.08359e-05
12 *396:21 *2872:A2 0.000143466
13 *396:21 *3013:A0 4.08637e-05
14 *396:21 *428:42 9.71197e-05
15 *2872:B1 *2871:A1 7.83366e-05
16 *2897:B *396:21 0.000142152
17 *2997:S *2997:A1 4.73286e-05
18 *2997:S *396:12 5.33614e-05
19 *3132:RESET_B *2871:A1 3.37729e-05
20 *3132:RESET_B *396:12 1.00073e-05
21 *3200:A *2997:A1 4.34755e-05
22 *3200:A *396:21 2.24079e-05
23 *198:142 *2871:A1 0
*RES
1 *3132:Q *396:12 21.0857 
2 *396:12 *2997:A1 11.8893 
3 *396:12 *396:21 3.82143 
4 *396:21 *2871:A1 21.5857 
5 *396:21 *2872:A1 9.3 
*END

*D_NET *397 0.000947956
*CONN
*I *2879:A1 I *D sky130_fd_sc_hd__a21o_1
*I *2878:A1 I *D sky130_fd_sc_hd__o21ai_1
*I *2999:A1 I *D sky130_fd_sc_hd__mux2_1
*I *3133:Q O *D sky130_fd_sc_hd__dfrtp_1
*CAP
1 *2879:A1 0.000101713
2 *2878:A1 0
3 *2999:A1 8.85202e-05
4 *3133:Q 5.14294e-05
5 *397:14 0.000154796
6 *397:10 0.000219419
7 *2879:A1 *2879:A2 5.49995e-05
8 *2999:A1 *429:67 6.48098e-05
9 *397:14 *2879:A2 1.87331e-05
10 *397:14 *429:61 1.62025e-05
11 *397:14 *429:67 1.62025e-05
12 *2878:B1 *397:10 7.74135e-05
13 *2879:B1 *2879:A1 1.97617e-05
14 *2879:B1 *397:14 7.25873e-06
15 *2999:S *2999:A1 5.66971e-05
*RES
1 *3133:Q *397:10 19.3357 
2 *397:10 *397:14 1.67857 
3 *397:14 *2999:A1 11.4786 
4 *397:14 *2878:A1 9.3 
5 *397:10 *2879:A1 10.6571 
*END

*D_NET *398 0.00168022
*CONN
*I *2875:A1 I *D sky130_fd_sc_hd__o21ai_1
*I *2876:A1 I *D sky130_fd_sc_hd__a21o_1
*I *3001:A1 I *D sky130_fd_sc_hd__mux2_1
*I *3134:Q O *D sky130_fd_sc_hd__dfrtp_1
*CAP
1 *2875:A1 0
2 *2876:A1 0.000132871
3 *3001:A1 0.000313729
4 *3134:Q 4.16506e-05
5 *398:23 0.000228272
6 *398:8 0.000450781
7 *2876:A1 *430:26 0.000104974
8 *3001:A1 *430:26 0
9 *398:23 *2875:A2 9.25014e-06
10 *2876:B1 *2876:A1 0.000117428
11 *3001:A0 *3001:A1 4.97967e-05
12 *135:12 *2876:A1 0.000104974
13 *135:12 *3001:A1 2.8266e-06
14 *135:12 *398:23 4.75521e-05
15 *194:82 *398:8 2.89114e-05
16 *195:48 *3001:A1 4.7201e-05
17 *327:10 *3001:A1 0
18 *327:10 *398:23 0
*RES
1 *3134:Q *398:8 14.3357 
2 *398:8 *3001:A1 18.5321 
3 *398:8 *398:23 6.44643 
4 *398:23 *2876:A1 21.8357 
5 *398:23 *2875:A1 9.3 
*END

*D_NET *399 0.001939
*CONN
*I *3003:A0 I *D sky130_fd_sc_hd__mux2_1
*I *2904:A2 I *D sky130_fd_sc_hd__o21ai_1
*I *2905:A2 I *D sky130_fd_sc_hd__a21o_1
*I *3135:Q O *D sky130_fd_sc_hd__dfrtp_1
*CAP
1 *3003:A0 0
2 *2904:A2 6.81454e-05
3 *2905:A2 2.32384e-05
4 *3135:Q 0.000513726
5 *399:16 0.000177207
6 *399:14 0.00059955
7 *2904:A2 *2905:A1 7.50601e-05
8 *2904:B1 *399:14 0
9 *2905:B1 *2905:A2 2.89016e-05
10 *2905:B1 *399:16 2.14757e-05
11 *3003:A1 *2904:A2 0.000149911
12 *3003:A1 *399:16 9.90367e-05
13 *3135:D *399:14 9.04846e-05
14 *3135:D *399:16 3.69047e-06
15 *3135:RESET_B *399:14 3.07309e-05
16 *207:64 *2904:A2 1.00375e-05
17 *351:25 *2904:A2 7.80714e-06
18 *351:25 *399:14 4.00025e-05
*RES
1 *3135:Q *399:14 25.425 
2 *399:14 *399:16 1.76786 
3 *399:16 *2905:A2 9.83571 
4 *399:16 *2904:A2 20.55 
5 *399:14 *3003:A0 9.3 
*END

*D_NET *400 0.0025575
*CONN
*I *2894:A2 I *D sky130_fd_sc_hd__a21o_1
*I *2893:A2 I *D sky130_fd_sc_hd__o21ai_1
*I *3005:A0 I *D sky130_fd_sc_hd__mux2_1
*I *3136:Q O *D sky130_fd_sc_hd__dfrtp_1
*CAP
1 *2894:A2 0
2 *2893:A2 0.000199206
3 *3005:A0 6.35199e-05
4 *3136:Q 0.000197785
5 *400:20 0.000361351
6 *400:12 0.00029641
7 *2893:A2 *2893:A1 5.52238e-05
8 *400:12 *424:49 9.11048e-06
9 *400:20 *424:58 0.000181272
10 *2893:B1 *2893:A2 9.90367e-05
11 *2894:B1 *2893:A2 0.000147913
12 *2894:B1 *3005:A0 4.83039e-05
13 *2894:B1 *400:20 0.000223883
14 *2937:D *2893:A2 0.000361914
15 *3005:A1 *2893:A2 3.57844e-05
16 *3005:S *400:12 3.10925e-05
17 *3006:A *2893:A2 4.79487e-05
18 *3136:D *2893:A2 0
19 *3231:A *2893:A2 0.000184745
20 *275:27 *400:12 1.29975e-05
*RES
1 *3136:Q *400:12 21.6929 
2 *400:12 *400:20 3.57143 
3 *400:20 *3005:A0 10.5679 
4 *400:20 *2893:A2 24.5679 
5 *400:12 *2894:A2 9.3 
*END

*D_NET *401 0.00230521
*CONN
*I *3007:A0 I *D sky130_fd_sc_hd__mux2_1
*I *2901:A2 I *D sky130_fd_sc_hd__a21o_1
*I *2900:A2 I *D sky130_fd_sc_hd__o21ai_1
*I *3137:Q O *D sky130_fd_sc_hd__dfrtp_1
*CAP
1 *3007:A0 0
2 *2901:A2 0
3 *2900:A2 0.000222467
4 *3137:Q 0.000272993
5 *401:18 0.000317931
6 *401:12 0.000368457
7 *2900:A2 *425:45 5.01234e-05
8 *2991:A1 *401:12 0.000122554
9 *3008:A *401:18 6.04633e-05
10 *195:48 *2900:A2 0.000201026
11 *195:48 *401:18 0.000326714
12 *199:63 *401:12 3.49044e-05
13 *199:80 *401:12 1.58559e-05
14 *203:83 *2900:A2 0.000210886
15 *203:83 *401:18 0.000100838
*RES
1 *3137:Q *401:12 22.7286 
2 *401:12 *401:18 3.96429 
3 *401:18 *2900:A2 24.3179 
4 *401:18 *2901:A2 9.3 
5 *401:12 *3007:A0 9.3 
*END

*D_NET *402 0.00297029
*CONN
*I *2903:A2 I *D sky130_fd_sc_hd__a21o_1
*I *2902:A2 I *D sky130_fd_sc_hd__o21ai_1
*I *3009:A0 I *D sky130_fd_sc_hd__mux2_1
*I *3138:Q O *D sky130_fd_sc_hd__dfrtp_1
*CAP
1 *2903:A2 2.06112e-05
2 *2902:A2 0.000138429
3 *3009:A0 0
4 *3138:Q 0.000239091
5 *402:31 0.000457527
6 *402:16 0.000537578
7 *2902:A2 *426:23 3.69047e-06
8 *2902:A2 *426:32 7.74146e-06
9 *2903:A2 *426:32 0
10 *402:16 *424:28 6.1625e-05
11 *2903:B1 *2902:A2 1.13883e-05
12 *2903:B1 *2903:A2 3.99614e-06
13 *2903:B1 *402:31 7.72745e-05
14 *2958:A *402:31 0
15 *3009:A1 *402:31 0.000316416
16 *3009:S *402:16 1.00399e-05
17 *120:18 *402:31 0.000362268
18 *139:16 *402:31 0.000314493
19 *163:24 *402:31 3.69047e-06
20 *184:16 *2902:A2 3.57366e-05
21 *184:16 *402:31 0.000139907
22 *332:49 *402:16 0.000228784
*RES
1 *3138:Q *402:16 23.6929 
2 *402:16 *3009:A0 9.3 
3 *402:16 *402:31 18.4464 
4 *402:31 *2902:A2 11.3893 
5 *402:31 *2903:A2 9.72857 
*END

*D_NET *403 0.00203325
*CONN
*I *2889:A2 I *D sky130_fd_sc_hd__o21ai_1
*I *2890:A2 I *D sky130_fd_sc_hd__a21o_1
*I *3011:A0 I *D sky130_fd_sc_hd__mux2_1
*I *3139:Q O *D sky130_fd_sc_hd__dfrtp_1
*CAP
1 *2889:A2 0.00013299
2 *2890:A2 8.26186e-05
3 *3011:A0 0.000259587
4 *3139:Q 0
5 *403:19 0.000326339
6 *403:6 0.000370318
7 *2889:A2 *2890:A1 0.000126416
8 *3011:A0 *2963:A1 0.000125601
9 *3011:A1 *3011:A0 5.71472e-05
10 *3012:A *2889:A2 0
11 *3012:A *403:19 0
12 *194:108 *2889:A2 0.000245261
13 *194:108 *3011:A0 7.83659e-05
14 *194:108 *403:19 0.000199706
15 *277:17 *2890:A2 2.89016e-05
*RES
1 *3139:Q *403:6 13.8 
2 *403:6 *3011:A0 17.8357 
3 *403:6 *403:19 2.55357 
4 *403:19 *2890:A2 15.4964 
5 *403:19 *2889:A2 16.9607 
*END

*D_NET *404 0.00239945
*CONN
*I *2892:A2 I *D sky130_fd_sc_hd__a21o_1
*I *3013:A0 I *D sky130_fd_sc_hd__mux2_1
*I *2891:A2 I *D sky130_fd_sc_hd__o21ai_1
*I *3140:Q O *D sky130_fd_sc_hd__dfrtp_1
*CAP
1 *2892:A2 0
2 *3013:A0 0.000335199
3 *2891:A2 4.36897e-05
4 *3140:Q 0.000202653
5 *404:25 0.000405937
6 *404:12 0.000317082
7 *2891:A2 *2871:A2 5.49544e-05
8 *404:12 *428:50 1.41029e-05
9 *404:25 *428:50 0.000196276
10 *2891:B1 *404:12 0
11 *2997:A0 *3013:A0 5.52238e-05
12 *2997:A1 *3013:A0 9.41642e-05
13 *2997:S *3013:A0 0.000198916
14 *2998:A *3013:A0 0
15 *3132:RESET_B *2891:A2 2.41649e-05
16 *3200:A *3013:A0 4.10843e-05
17 *203:60 *3013:A0 0.000129598
18 *275:70 *404:12 3.34295e-05
19 *326:43 *3013:A0 5.71472e-05
20 *396:12 *2891:A2 6.05161e-06
21 *396:12 *404:25 0.000148911
22 *396:21 *3013:A0 4.08637e-05
*RES
1 *3140:Q *404:12 17.3179 
2 *404:12 *2891:A2 14.7464 
3 *404:12 *404:25 7.05357 
4 *404:25 *3013:A0 25.8357 
5 *404:25 *2892:A2 9.3 
*END

*D_NET *405 0.00227727
*CONN
*I *2898:A2 I *D sky130_fd_sc_hd__o21ai_1
*I *2899:A2 I *D sky130_fd_sc_hd__a21o_1
*I *3015:A0 I *D sky130_fd_sc_hd__mux2_1
*I *3141:Q O *D sky130_fd_sc_hd__dfrtp_1
*CAP
1 *2898:A2 0.000151471
2 *2899:A2 0
3 *3015:A0 0.000104358
4 *3141:Q 4.36033e-05
5 *405:12 0.00015889
6 *405:8 0.000249606
7 *2898:A2 *2898:A1 5.59013e-05
8 *3015:A0 *429:35 0.000266479
9 *405:12 *2898:A1 9.91086e-05
10 *3009:S *3015:A0 0.000392923
11 *3015:A1 *3015:A0 9.90367e-05
12 *3141:CLK *2898:A2 0.000227539
13 *3141:RESET_B *2898:A2 4.49293e-05
14 *3141:RESET_B *405:12 0.000121573
15 *125:22 *405:8 5.33005e-05
16 *163:24 *3015:A0 5.8148e-05
17 *199:118 *3015:A0 0.00010096
18 *203:102 *2898:A2 2.26327e-05
19 *203:102 *405:12 1.08359e-05
20 *332:33 *2898:A2 1.59782e-05
*RES
1 *3141:Q *405:8 14.3357 
2 *405:8 *405:12 6.14286 
3 *405:12 *3015:A0 13.9429 
4 *405:12 *2899:A2 9.3 
5 *405:8 *2898:A2 17.3179 
*END

*D_NET *406 0.00255348
*CONN
*I *3017:A0 I *D sky130_fd_sc_hd__mux2_1
*I *2896:A2 I *D sky130_fd_sc_hd__a21o_1
*I *2895:A2 I *D sky130_fd_sc_hd__o21ai_1
*I *3142:Q O *D sky130_fd_sc_hd__dfrtp_1
*CAP
1 *3017:A0 0
2 *2896:A2 0.000106431
3 *2895:A2 0.00011324
4 *3142:Q 0.000383068
5 *406:25 0.00027219
6 *406:8 0.000662067
7 *2896:A2 *2896:A1 6.05161e-06
8 *2895:B1 *2895:A2 5.71472e-05
9 *2896:B1 *2895:A2 5.52302e-05
10 *3017:A1 *406:25 0.000211622
11 *3166:RESET_B *406:25 0.000121916
12 *199:42 *2896:A2 0.000117392
13 *207:39 *2895:A2 7.22263e-05
14 *320:25 *406:25 6.93626e-06
15 *328:14 *2895:A2 7.83587e-05
16 *328:14 *406:25 0.000226021
17 *345:38 *2895:A2 2.56694e-05
18 *345:38 *406:25 3.79104e-05
*RES
1 *3142:Q *406:8 18.0321 
2 *406:8 *2895:A2 16.6214 
3 *406:8 *406:25 10.3929 
4 *406:25 *2896:A2 11.4786 
5 *406:25 *3017:A0 9.3 
*END

*D_NET *407 0.00273415
*CONN
*I *2925:A2 I *D sky130_fd_sc_hd__a21o_1
*I *2924:A2 I *D sky130_fd_sc_hd__o21ai_1
*I *3019:A0 I *D sky130_fd_sc_hd__mux2_1
*I *3143:Q O *D sky130_fd_sc_hd__dfrtp_1
*CAP
1 *2925:A2 0.000360094
2 *2924:A2 0
3 *3019:A0 0.000126552
4 *3143:Q 0
5 *407:14 0.000297429
6 *407:4 0.000530971
7 *2925:A2 *2924:A1 0.000179236
8 *2924:B1 *407:14 0.000264603
9 *2925:B1 *3019:A0 0.000206655
10 *2925:B1 *407:14 9.99853e-05
11 *3020:A *3019:A0 0
12 *3143:RESET_B *2925:A2 9.1736e-05
13 *281:143 *2925:A2 3.93346e-05
14 *323:16 *407:14 8.00806e-05
15 *347:8 *2925:A2 4.27437e-05
16 *347:18 *2925:A2 0.00041473
*RES
1 *3143:Q *407:4 9.3 
2 *407:4 *407:14 13.3571 
3 *407:14 *3019:A0 12.8714 
4 *407:14 *2924:A2 9.3 
5 *407:4 *2925:A2 19.1036 
*END

*D_NET *408 0.00276779
*CONN
*I *2913:A2 I *D sky130_fd_sc_hd__o21ai_1
*I *2914:A2 I *D sky130_fd_sc_hd__a21o_1
*I *3021:A0 I *D sky130_fd_sc_hd__mux2_1
*I *3144:Q O *D sky130_fd_sc_hd__dfrtp_1
*CAP
1 *2913:A2 0.000170893
2 *2914:A2 3.00142e-05
3 *3021:A0 0
4 *3144:Q 0.000202816
5 *408:23 0.000905866
6 *408:10 0.000907774
7 *2913:A2 *2914:A1 0.000206085
8 *2914:A2 *2914:A1 3.57366e-05
9 *2913:B1 *2913:A2 5.52302e-05
10 *3021:A1 *408:10 0.000129868
11 *203:14 *408:10 4.57445e-05
12 *322:16 *408:10 7.77652e-05
13 *340:8 *408:10 0
14 *340:8 *408:23 0
*RES
1 *3144:Q *408:10 17.7107 
2 *408:10 *3021:A0 13.8 
3 *408:10 *408:23 15.375 
4 *408:23 *2914:A2 10.0321 
5 *408:23 *2913:A2 12.7107 
*END

*D_NET *409 0.00238355
*CONN
*I *3023:A0 I *D sky130_fd_sc_hd__mux2_1
*I *2920:A2 I *D sky130_fd_sc_hd__o21ai_1
*I *2921:A2 I *D sky130_fd_sc_hd__a21o_1
*I *3145:Q O *D sky130_fd_sc_hd__dfrtp_1
*CAP
1 *3023:A0 0.000167876
2 *2920:A2 0
3 *2921:A2 0.000141457
4 *3145:Q 6.67262e-05
5 *409:12 0.000442367
6 *409:8 0.000535513
7 *2921:A2 *2920:A1 0.000134926
8 *409:12 *2920:A1 5.50052e-05
9 *409:12 *417:8 0.000153499
10 *409:12 *417:14 0.000187553
11 *2940:B1 *2921:A2 3.67279e-06
12 *3040:A *2921:A2 1.32293e-05
13 *3153:CLK *409:12 6.75952e-05
14 *3153:D *2921:A2 3.9733e-05
15 *3153:D *409:12 4.59514e-05
16 *323:22 *3023:A0 8.25843e-06
17 *323:26 *3023:A0 1.29901e-05
18 *323:32 *2921:A2 2.38501e-05
19 *346:67 *2921:A2 1.92384e-05
20 *351:14 *3023:A0 0.000137832
21 *351:14 *409:8 0.000126272
*RES
1 *3145:Q *409:8 15.4429 
2 *409:8 *409:12 12.0179 
3 *409:12 *2921:A2 21.6393 
4 *409:12 *2920:A2 9.3 
5 *409:8 *3023:A0 16.6929 
*END

*D_NET *410 0.00264195
*CONN
*I *2922:A2 I *D sky130_fd_sc_hd__o21ai_1
*I *3025:A0 I *D sky130_fd_sc_hd__mux2_1
*I *2923:A2 I *D sky130_fd_sc_hd__a21o_1
*I *3146:Q O *D sky130_fd_sc_hd__dfrtp_1
*CAP
1 *2922:A2 0.000183462
2 *3025:A0 3.53265e-05
3 *2923:A2 0.000172254
4 *3146:Q 2.65875e-05
5 *410:12 0.000342305
6 *410:8 0.000344774
7 *2922:A2 *426:109 0
8 *410:8 *2943:A1 0.000140933
9 *2922:B1 *2922:A2 0.000144773
10 *2923:B1 *2922:A2 0
11 *2923:B1 *2923:A2 0.00010096
12 *2923:B1 *410:12 0
13 *2926:C *2923:A2 0.0001871
14 *2926:C *3025:A0 2.12647e-05
15 *2942:B1 *2922:A2 7.03295e-05
16 *2943:B1 *2922:A2 0.000274288
17 *2946:A *2922:A2 0.000148189
18 *3026:A *2923:A2 0.000128044
19 *3041:A1 *2922:A2 2.47093e-05
20 *3041:A1 *410:12 5.7234e-05
21 *3042:A *2922:A2 3.92854e-05
22 *182:12 *410:8 0.000140933
23 *203:125 *2923:A2 2.24763e-05
24 *203:125 *3025:A0 3.67257e-05
*RES
1 *3146:Q *410:8 15.1571 
2 *410:8 *410:12 6.75 
3 *410:12 *2923:A2 13.9786 
4 *410:12 *3025:A0 10.2464 
5 *410:8 *2922:A2 19.2464 
*END

*D_NET *411 0.00318836
*CONN
*I *2910:A2 I *D sky130_fd_sc_hd__a21o_1
*I *3027:A0 I *D sky130_fd_sc_hd__mux2_1
*I *2909:A2 I *D sky130_fd_sc_hd__o21ai_1
*I *3147:Q O *D sky130_fd_sc_hd__dfrtp_1
*CAP
1 *2910:A2 0
2 *3027:A0 0.000284395
3 *2909:A2 0
4 *3147:Q 0.000118977
5 *411:23 0.000633108
6 *411:6 0.000467689
7 *3027:A0 *2910:A1 5.66971e-05
8 *3027:A0 *427:96 5.7661e-06
9 *411:23 *2909:A1 0.00019378
10 *2910:B1 *3027:A0 0.00018372
11 *3126:CLK *411:23 4.00319e-05
12 *3126:D *411:23 3.48139e-05
13 *207:149 *411:23 7.6644e-05
14 *276:78 *411:6 0.000274294
15 *276:78 *411:23 3.77662e-05
16 *318:24 *3027:A0 0.000189855
17 *325:31 *3027:A0 0.000523648
18 *325:41 *3027:A0 6.71755e-05
*RES
1 *3147:Q *411:6 11.8893 
2 *411:6 *2909:A2 9.3 
3 *411:6 *411:23 14.9107 
4 *411:23 *3027:A0 17.6571 
5 *411:23 *2910:A2 9.3 
*END

*D_NET *412 0.00209376
*CONN
*I *2912:A2 I *D sky130_fd_sc_hd__a21o_1
*I *3029:A0 I *D sky130_fd_sc_hd__mux2_1
*I *2911:A2 I *D sky130_fd_sc_hd__o21ai_1
*I *3148:Q O *D sky130_fd_sc_hd__dfrtp_1
*CAP
1 *2912:A2 0.00017162
2 *3029:A0 0.00016571
3 *2911:A2 0.000182889
4 *3148:Q 0
5 *412:19 0.000386474
6 *412:4 0.000232033
7 *2912:B1 *2911:A2 5.62995e-05
8 *3148:RESET_B *2911:A2 6.05161e-06
9 *203:6 *2912:A2 0.000404707
10 *203:6 *3029:A0 8.25996e-05
11 *203:14 *3029:A0 7.77652e-05
12 *325:10 *412:19 5.33882e-05
13 *339:38 *412:19 0.00010326
14 *339:54 *2911:A2 0.000170964
*RES
1 *3148:Q *412:4 9.3 
2 *412:4 *2911:A2 13.4429 
3 *412:4 *412:19 10.3393 
4 *412:19 *3029:A0 12.3 
5 *412:19 *2912:A2 13.55 
*END

*D_NET *413 0.00147591
*CONN
*I *2918:A2 I *D sky130_fd_sc_hd__o21ai_1
*I *2919:A2 I *D sky130_fd_sc_hd__a21o_1
*I *3031:A0 I *D sky130_fd_sc_hd__mux2_1
*I *3149:Q O *D sky130_fd_sc_hd__dfrtp_1
*CAP
1 *2918:A2 3.10251e-05
2 *2919:A2 6.60136e-05
3 *3031:A0 5.69877e-05
4 *3149:Q 4.36033e-05
5 *413:12 0.000210013
6 *413:6 0.00016164
7 *2919:A2 *2919:A1 0.000186846
8 *3031:A0 *2919:A1 4.84159e-05
9 *413:12 *427:28 0.000148903
10 *2919:B1 *413:12 0
11 *3031:A1 *3031:A0 5.52238e-05
12 *3031:S *2919:A2 0.000272371
13 *3031:S *3031:A0 5.33005e-05
14 *3149:CLK *2918:A2 5.52302e-05
15 *3149:CLK *413:6 5.33005e-05
16 *203:102 *413:12 0
17 *203:125 *2919:A2 3.30352e-05
*RES
1 *3149:Q *413:6 9.83571 
2 *413:6 *413:12 10.9464 
3 *413:12 *3031:A0 10.6571 
4 *413:12 *2919:A2 12.7107 
5 *413:6 *2918:A2 9.83571 
*END

*D_NET *414 0.00135217
*CONN
*I *2916:A2 I *D sky130_fd_sc_hd__a21o_1
*I *3033:A0 I *D sky130_fd_sc_hd__mux2_1
*I *2915:A2 I *D sky130_fd_sc_hd__o21ai_1
*I *3150:Q O *D sky130_fd_sc_hd__dfrtp_1
*CAP
1 *2916:A2 7.98226e-05
2 *3033:A0 0
3 *2915:A2 5.78379e-05
4 *3150:Q 3.9195e-05
5 *414:14 0.00020627
6 *414:8 0.00026745
7 *2916:A2 *430:30 0.000146261
8 *414:14 *430:30 7.89303e-05
9 *2916:B1 *2915:A2 0.000128154
10 *3049:A1 *2915:A2 0.000175519
11 *3134:RESET_B *414:14 0
12 *203:60 *414:8 5.52238e-05
13 *203:60 *414:14 6.42095e-05
14 *327:10 *2915:A2 0
15 *328:24 *414:14 5.33005e-05
16 *341:65 *414:14 0
*RES
1 *3150:Q *414:8 14.3357 
2 *414:8 *414:14 7.30357 
3 *414:14 *2915:A2 20.55 
4 *414:14 *3033:A0 9.3 
5 *414:8 *2916:A2 15.7464 
*END

*D_NET *415 0.00174694
*CONN
*I *2944:A2 I *D sky130_fd_sc_hd__o21ai_1
*I *3035:A0 I *D sky130_fd_sc_hd__mux2_1
*I *2945:A2 I *D sky130_fd_sc_hd__a21o_1
*I *3151:Q O *D sky130_fd_sc_hd__dfrtp_1
*CAP
1 *2944:A2 0
2 *3035:A0 0
3 *2945:A2 3.77695e-05
4 *3151:Q 0.000254639
5 *415:18 0.000187569
6 *415:12 0.000404439
7 *415:12 *423:14 7.83587e-05
8 *2945:B1 *2945:A2 0.000228558
9 *2945:B1 *415:18 0.000228756
10 *3041:S *2945:A2 0.000196951
11 *3041:S *415:18 0.000129901
12 *321:10 *415:12 0
*RES
1 *3151:Q *415:12 21.5143 
2 *415:12 *415:18 3.75 
3 *415:18 *2945:A2 11.4786 
4 *415:18 *3035:A0 9.3 
5 *415:12 *2944:A2 9.3 
*END

*D_NET *416 0.00180577
*CONN
*I *3037:A0 I *D sky130_fd_sc_hd__mux2_1
*I *2934:A2 I *D sky130_fd_sc_hd__a21o_1
*I *2933:A2 I *D sky130_fd_sc_hd__o21ai_1
*I *3152:Q O *D sky130_fd_sc_hd__dfrtp_1
*CAP
1 *3037:A0 0.000271
2 *2934:A2 0
3 *2933:A2 0.000260959
4 *3152:Q 0
5 *416:8 0.000411764
6 *416:4 0.000421805
7 *2933:A2 *2934:A1 7.17403e-05
8 *2933:A2 *424:90 2.16184e-05
9 *416:8 *2934:A1 0
10 *2933:B1 *2933:A2 1.60322e-05
11 *2934:B1 *2933:A2 0.000149911
12 *3184:D *3037:A0 6.04256e-05
13 *207:118 *3037:A0 0
14 *322:16 *3037:A0 2.14757e-05
15 *322:28 *3037:A0 9.90367e-05
16 *339:91 *3037:A0 0
*RES
1 *3152:Q *416:4 9.3 
2 *416:4 *416:8 2.80357 
3 *416:8 *2933:A2 14.425 
4 *416:8 *2934:A2 9.3 
5 *416:4 *3037:A0 23.425 
*END

*D_NET *417 0.00384176
*CONN
*I *3039:A0 I *D sky130_fd_sc_hd__mux2_1
*I *2940:A2 I *D sky130_fd_sc_hd__o21ai_1
*I *2941:A2 I *D sky130_fd_sc_hd__a21o_1
*I *3153:Q O *D sky130_fd_sc_hd__dfrtp_1
*CAP
1 *3039:A0 8.09301e-05
2 *2940:A2 0
3 *2941:A2 0.000165693
4 *3153:Q 0.000477378
5 *417:14 0.000606577
6 *417:8 0.000999192
7 *2941:A2 *2941:A1 2.85234e-05
8 *2941:A2 *425:10 3.29297e-05
9 *2941:A2 *425:12 0.000124012
10 *2941:A2 *425:20 7.89362e-05
11 *2941:A2 *425:124 2.59355e-05
12 *417:14 *2920:A1 1.62025e-05
13 *2920:B1 *417:14 2.83425e-05
14 *2921:B1 *2941:A2 0.000101178
15 *2940:B1 *2941:A2 2.50593e-05
16 *2941:B1 *417:14 5.50052e-05
17 *3024:A *3039:A0 7.58841e-05
18 *3024:A *417:14 0.000126871
19 *3153:CLK *417:14 8.10737e-06
20 *3153:RESET_B *417:8 0.000136968
21 *207:45 *3039:A0 6.67257e-05
22 *207:45 *417:14 0.000126871
23 *323:32 *2941:A2 9.75679e-05
24 *323:32 *3039:A0 1.58163e-05
25 *409:12 *417:8 0.000153499
26 *409:12 *417:14 0.000187553
*RES
1 *3153:Q *417:8 20.0857 
2 *417:8 *417:14 11.6071 
3 *417:14 *2941:A2 22.5321 
4 *417:14 *2940:A2 9.3 
5 *417:8 *3039:A0 15.3714 
*END

*D_NET *418 0.00291903
*CONN
*I *2943:A2 I *D sky130_fd_sc_hd__a21o_1
*I *3041:A0 I *D sky130_fd_sc_hd__mux2_1
*I *2942:A2 I *D sky130_fd_sc_hd__o21ai_1
*I *3154:Q O *D sky130_fd_sc_hd__dfrtp_1
*CAP
1 *2943:A2 0.000219576
2 *3041:A0 8.43036e-06
3 *2942:A2 0.000385442
4 *3154:Q 0.000123379
5 *418:21 0.000282105
6 *418:12 0.00056292
7 *2942:A2 *2942:A1 2.95726e-05
8 *2943:A2 *2943:A1 1.74352e-05
9 *2942:B1 *2942:A2 0.000443648
10 *2942:B1 *3041:A0 7.43578e-06
11 *2942:B1 *418:12 7.83659e-05
12 *2943:B1 *2943:A2 0.000258011
13 *2943:B1 *3041:A0 5.71472e-05
14 *2946:A *2943:A2 5.71472e-05
15 *2946:B *2943:A2 1.02504e-05
16 *2946:C *2943:A2 9.90431e-05
17 *3041:A1 *2943:A2 0
18 *3041:S *2943:A2 0.000186662
19 *3146:RESET_B *2943:A2 0
20 *3146:RESET_B *418:12 7.6644e-05
21 *3154:RESET_B *418:12 1.58163e-05
*RES
1 *3154:Q *418:12 20.2821 
2 *418:12 *2942:A2 14.7643 
3 *418:12 *418:21 1.03571 
4 *418:21 *3041:A0 9.83571 
5 *418:21 *2943:A2 24.0857 
*END

*D_NET *419 0.00229774
*CONN
*I *2929:A2 I *D sky130_fd_sc_hd__o21ai_1
*I *2930:A2 I *D sky130_fd_sc_hd__a21o_1
*I *3043:A0 I *D sky130_fd_sc_hd__mux2_1
*I *3155:Q O *D sky130_fd_sc_hd__dfrtp_1
*CAP
1 *2929:A2 0.000106835
2 *2930:A2 4.59128e-05
3 *3043:A0 1.41579e-05
4 *3155:Q 0.000126457
5 *419:17 0.00035049
6 *419:6 0.000338356
7 *2930:B1 *2929:A2 0.000127031
8 *2930:B1 *2930:A2 5.71472e-05
9 *2930:B1 *419:17 4.35567e-05
10 *3043:A1 *3043:A0 3.57366e-05
11 *3043:A1 *419:6 1.92905e-05
12 *3043:A1 *419:17 2.04196e-05
13 *3044:A *419:6 5.17614e-05
14 *3047:S *2929:A2 0.00048939
15 *3047:S *419:17 0.000396898
16 *3209:A *2929:A2 2.89114e-05
17 *338:28 *419:6 4.53889e-05
*RES
1 *3155:Q *419:6 11.8893 
2 *419:6 *3043:A0 9.72857 
3 *419:6 *419:17 5.07143 
4 *419:17 *2930:A2 10.5679 
5 *419:17 *2929:A2 13.9429 
*END

*D_NET *420 0.00166814
*CONN
*I *2931:A2 I *D sky130_fd_sc_hd__o21ai_1
*I *3045:A0 I *D sky130_fd_sc_hd__mux2_1
*I *2932:A2 I *D sky130_fd_sc_hd__a21o_1
*I *3156:Q O *D sky130_fd_sc_hd__dfrtp_1
*CAP
1 *2931:A2 6.21814e-05
2 *3045:A0 0
3 *2932:A2 0.000101974
4 *3156:Q 7.98932e-05
5 *420:21 7.52236e-05
6 *420:8 0.000194909
7 *2932:A2 *2931:A1 0
8 *2932:A2 *428:109 5.80706e-06
9 *2932:B1 *2931:A2 6.4443e-05
10 *2932:B1 *2932:A2 5.0725e-05
11 *3045:S *2931:A2 0.00010096
12 *3045:S *2932:A2 0.00020042
13 *3045:S *420:8 5.52238e-05
14 *3045:S *420:21 9.90431e-05
15 *3156:RESET_B *420:8 1.24368e-05
16 *326:22 *2931:A2 4.38128e-05
17 *326:22 *420:8 0.000160197
18 *326:22 *420:21 8.76257e-05
19 *326:43 *2931:A2 0.000273269
20 *339:54 *2932:A2 0
*RES
1 *3156:Q *420:8 11.4964 
2 *420:8 *2932:A2 21.1571 
3 *420:8 *420:21 0.946429 
4 *420:21 *3045:A0 9.3 
5 *420:21 *2931:A2 12.3 
*END

*D_NET *421 0.00213943
*CONN
*I *2938:A2 I *D sky130_fd_sc_hd__o21ai_1
*I *2939:A2 I *D sky130_fd_sc_hd__a21o_1
*I *3047:A0 I *D sky130_fd_sc_hd__mux2_1
*I *3157:Q O *D sky130_fd_sc_hd__dfrtp_1
*CAP
1 *2938:A2 9.48648e-05
2 *2939:A2 0
3 *3047:A0 0.000191744
4 *3157:Q 0.000187748
5 *421:14 0.00027999
6 *421:6 0.000370859
7 *2938:A2 *2938:A1 4.72917e-05
8 *3047:A0 *427:28 2.44318e-05
9 *421:14 *2938:A1 8.64819e-05
10 *2938:B1 *2938:A2 5.52238e-05
11 *2939:B1 *421:14 3.31108e-05
12 *3047:A1 *3047:A0 0.000579959
13 *3047:S *3047:A0 4.01768e-05
14 *342:69 *2938:A2 1.00073e-05
15 *342:69 *421:6 0.000101831
16 *344:49 *421:14 3.5707e-05
*RES
1 *3157:Q *421:6 12.7107 
2 *421:6 *421:14 11.375 
3 *421:14 *3047:A0 15.175 
4 *421:14 *2939:A2 9.3 
5 *421:6 *2938:A2 11.0679 
*END

*D_NET *422 0.00173224
*CONN
*I *2936:A2 I *D sky130_fd_sc_hd__a21o_1
*I *3049:A0 I *D sky130_fd_sc_hd__mux2_1
*I *2935:A2 I *D sky130_fd_sc_hd__o21ai_1
*I *3158:Q O *D sky130_fd_sc_hd__dfrtp_1
*CAP
1 *2936:A2 9.71152e-05
2 *3049:A0 5.29948e-05
3 *2935:A2 0
4 *3158:Q 0.000228078
5 *422:21 0.000194229
6 *422:12 0.000272197
7 *422:12 *2935:A1 1.02504e-05
8 *2935:B1 *422:12 0.000167266
9 *2936:B1 *2936:A2 5.5782e-05
10 *3049:A1 *2936:A2 0.000197977
11 *3049:A1 *422:12 6.38844e-06
12 *198:29 *422:12 5.71472e-05
13 *207:22 *3049:A0 0.00010096
14 *207:39 *3049:A0 2.74192e-05
15 *207:39 *422:21 0.000136958
16 *333:18 *3049:A0 5.71472e-05
17 *333:18 *422:12 0
18 *333:18 *422:21 7.03295e-05
19 *341:10 *422:12 0
20 *341:49 *2936:A2 0
21 *341:49 *422:12 0
*RES
1 *3158:Q *422:12 22.9071 
2 *422:12 *2935:A2 9.3 
3 *422:12 *422:21 1.78571 
4 *422:21 *3049:A0 11.0857 
5 *422:21 *2936:A2 20.8536 
*END

*D_NET *423 0.0132617
*CONN
*I *2951:A0 I *D sky130_fd_sc_hd__mux2_1
*I *2944:A1 I *D sky130_fd_sc_hd__o21ai_1
*I *2924:A1 I *D sky130_fd_sc_hd__o21ai_1
*I *2925:A1 I *D sky130_fd_sc_hd__a21o_1
*I *2884:A2 I *D sky130_fd_sc_hd__o21ai_1
*I *2885:A2 I *D sky130_fd_sc_hd__a21o_1
*I *2953:A1 I *D sky130_fd_sc_hd__mux2_1
*I *2904:A1 I *D sky130_fd_sc_hd__o21ai_1
*I *2905:A1 I *D sky130_fd_sc_hd__a21o_1
*I *2945:A1 I *D sky130_fd_sc_hd__a21o_1
*I *3115:Q O *D sky130_fd_sc_hd__dfrtp_4
*CAP
1 *2951:A0 0.000197686
2 *2944:A1 0
3 *2924:A1 0.000516776
4 *2925:A1 4.36033e-05
5 *2884:A2 7.19602e-05
6 *2885:A2 2.23854e-05
7 *2953:A1 0.0004316
8 *2904:A1 1.20577e-05
9 *2905:A1 6.1151e-05
10 *2945:A1 7.26651e-05
11 *3115:Q 9.98607e-05
12 *423:102 0.000560379
13 *423:69 0.000520492
14 *423:63 0.000871795
15 *423:39 0.000491142
16 *423:31 0.00127933
17 *423:29 0.000833063
18 *423:18 0.00107726
19 *423:14 0.000789103
20 *423:8 0.000787049
21 *2884:A1 *2884:A2 0.000197984
22 *2885:A1 *2953:A1 2.44318e-05
23 *2885:A1 *423:69 2.14658e-05
24 *2885:B1 *2953:A1 8.50152e-05
25 *2904:A2 *2905:A1 7.50601e-05
26 *2925:A2 *2924:A1 0.000179236
27 *2925:B1 *423:29 4.49293e-05
28 *2925:B1 *423:31 0.000101545
29 *2925:B1 *423:63 1.40306e-05
30 *2926:D *423:29 0
31 *2945:B1 *2945:A1 9.60875e-05
32 *2945:B1 *423:14 9.90367e-05
33 *2945:B1 *423:18 0.0003586
34 *2951:A1 *2951:A0 0.000532305
35 *2951:S *2951:A0 5.17614e-05
36 *2987:A1 *423:69 6.05161e-06
37 *2988:A *2953:A1 4.58194e-05
38 *2988:A *423:69 2.59355e-05
39 *3003:A1 *423:39 0
40 *3019:S *2924:A1 4.03318e-05
41 *3041:S *423:14 0
42 *3051:A0 *2904:A1 4.27935e-05
43 *3051:A0 *423:39 9.60875e-05
44 *3052:A *2953:A1 0
45 *3100:A *423:29 7.57869e-05
46 *3143:D *423:31 0
47 *3159:CLK *2953:A1 0
48 *3175:CLK *423:29 0.000199698
49 *3183:CLK *423:29 0.000126439
50 *163:20 *2953:A1 0
51 *177:10 *2884:A2 0.000245349
52 *177:10 *2953:A1 0
53 *177:10 *423:69 0.00012401
54 *184:20 *2904:A1 2.89114e-05
55 *184:20 *423:39 4.87854e-05
56 *195:69 *2953:A1 0.000153047
57 *203:140 *423:29 0.000390484
58 *207:64 *2905:A1 0.000148189
59 *207:64 *423:39 5.7616e-05
60 *207:77 *423:14 0
61 *281:143 *2924:A1 5.52302e-05
62 *281:143 *2925:A1 5.33005e-05
63 *321:10 *423:8 0
64 *321:10 *423:14 0
65 *321:12 *423:29 0
66 *321:14 *423:31 0
67 *321:14 *423:39 0
68 *332:60 *2953:A1 5.71472e-05
69 *347:18 *423:29 0
70 *347:18 *423:63 0.000106042
71 *347:80 *423:29 0
72 *391:8 *423:63 0.00025051
73 *391:16 *2884:A2 4.80729e-05
74 *391:16 *2953:A1 1.11093e-05
75 *391:16 *423:69 0.000125731
76 *415:12 *423:14 7.83587e-05
*RES
1 *3115:Q *423:8 15.4429 
2 *423:8 *423:14 13.4643 
3 *423:14 *423:18 4.55357 
4 *423:18 *2945:A1 10.2464 
5 *423:18 *423:29 19.1964 
6 *423:29 *423:31 2.55357 
7 *423:31 *423:39 12.375 
8 *423:39 *2905:A1 20.2464 
9 *423:39 *2904:A1 9.83571 
10 *423:31 *423:63 18.5714 
11 *423:63 *423:69 6.67857 
12 *423:69 *2953:A1 26.5857 
13 *423:69 *2885:A2 9.72857 
14 *423:63 *2884:A2 16.9607 
15 *423:29 *423:102 4.5 
16 *423:102 *2925:A1 9.83571 
17 *423:102 *2924:A1 25.4071 
18 *423:14 *2944:A1 9.3 
19 *423:8 *2951:A0 19.2643 
*END

*D_NET *424 0.0189429
*CONN
*I *2953:A0 I *D sky130_fd_sc_hd__mux2_1
*I *2955:A1 I *D sky130_fd_sc_hd__mux2_1
*I *2873:A2 I *D sky130_fd_sc_hd__o21ai_1
*I *2913:A1 I *D sky130_fd_sc_hd__o21ai_1
*I *2914:A1 I *D sky130_fd_sc_hd__a21o_1
*I *2934:A1 I *D sky130_fd_sc_hd__a21o_1
*I *2933:A1 I *D sky130_fd_sc_hd__o21ai_1
*I *2893:A1 I *D sky130_fd_sc_hd__o21ai_1
*I *2894:A1 I *D sky130_fd_sc_hd__a21o_1
*I *2874:A2 I *D sky130_fd_sc_hd__a21o_1
*I *3116:Q O *D sky130_fd_sc_hd__dfrtp_4
*CAP
1 *2953:A0 0.000158296
2 *2955:A1 0
3 *2873:A2 0
4 *2913:A1 3.55275e-05
5 *2914:A1 0.000105136
6 *2934:A1 8.30018e-05
7 *2933:A1 0
8 *2893:A1 0.000153231
9 *2894:A1 0
10 *2874:A2 4.17539e-05
11 *3116:Q 0.000214888
12 *424:107 0.000429816
13 *424:90 0.000486643
14 *424:81 0.000957481
15 *424:58 0.00138746
16 *424:49 0.00118943
17 *424:41 0.00094105
18 *424:28 0.00330241
19 *424:16 0.0031178
20 *424:14 0.000373184
21 *424:28 *2955:A0 0.000809556
22 *2873:A1 *424:49 0
23 *2873:B1 *424:49 9.83388e-05
24 *2874:B1 *2874:A2 0.000106517
25 *2874:B1 *424:28 2.44318e-05
26 *2874:B1 *424:41 3.93369e-05
27 *2877:A *424:28 0.00010096
28 *2877:C *424:28 0.000185643
29 *2877:D *424:28 0.000503973
30 *2887:B *424:28 0.000199934
31 *2893:A2 *2893:A1 5.52238e-05
32 *2894:B1 *424:58 2.02599e-05
33 *2913:A2 *2914:A1 0.000206085
34 *2913:B1 *2914:A1 5.33005e-05
35 *2913:B1 *424:107 3.17148e-05
36 *2914:A2 *2914:A1 3.57366e-05
37 *2914:B1 *2914:A1 0.000139658
38 *2917:C *2913:A1 6.05161e-06
39 *2917:C *2914:A1 3.97677e-05
40 *2933:A2 *2934:A1 7.17403e-05
41 *2933:A2 *424:90 2.16184e-05
42 *2933:B1 *424:90 5.52238e-05
43 *2934:B1 *2934:A1 7.25873e-06
44 *2934:B1 *424:90 6.03365e-05
45 *2937:C *424:81 1.4796e-05
46 *2937:C *424:90 0.000178847
47 *2937:D *2893:A1 2.44318e-05
48 *2954:A *424:28 0.000105163
49 *2955:S *2953:A0 6.65398e-05
50 *2956:A *2953:A0 0
51 *3005:A1 *424:49 0
52 *3006:A *2893:A1 0.000112738
53 *3069:S *424:49 0
54 *3117:D *2953:A0 0.000100735
55 *3117:D *424:14 5.72399e-05
56 *3136:D *2893:A1 3.47737e-05
57 *3138:RESET_B *424:28 9.11626e-05
58 *3168:CLK *424:81 7.77652e-05
59 *3168:D *424:81 8.25843e-06
60 *3168:RESET_B *424:58 1.60121e-05
61 *143:16 *2953:A0 3.93346e-05
62 *149:12 *424:107 0.000192941
63 *195:69 *2953:A0 0
64 *195:69 *424:14 1.31235e-05
65 *207:118 *424:107 0.000198729
66 *207:137 *424:107 0.000298269
67 *279:52 *424:14 0.000227539
68 *295:10 *2893:A1 3.71496e-05
69 *332:49 *424:28 0.000208719
70 *332:60 *2953:A0 7.08482e-05
71 *362:24 *424:107 0.000589011
72 *392:12 *424:49 7.6997e-05
73 *392:27 *424:49 0
74 *400:12 *424:49 9.11048e-06
75 *400:20 *424:58 0.000181272
76 *402:16 *424:28 6.1625e-05
77 *416:8 *2934:A1 0
*RES
1 *3116:Q *424:14 18.2821 
2 *424:14 *424:16 4.5 
3 *424:16 *424:28 49.1964 
4 *424:28 *2874:A2 10.675 
5 *424:28 *424:41 2.60714 
6 *424:41 *424:49 22.0357 
7 *424:49 *2894:A1 9.3 
8 *424:49 *424:58 6.60714 
9 *424:58 *2893:A1 21.6214 
10 *424:58 *424:81 11.5714 
11 *424:81 *2933:A1 9.3 
12 *424:81 *424:90 3.32143 
13 *424:90 *2934:A1 11.1036 
14 *424:90 *424:107 20.9643 
15 *424:107 *2914:A1 13.2821 
16 *424:107 *2913:A1 9.83571 
17 *424:41 *2873:A2 9.3 
18 *424:16 *2955:A1 9.3 
19 *424:14 *2953:A0 17.6214 
*END

*D_NET *425 0.0141525
*CONN
*I *2920:A1 I *D sky130_fd_sc_hd__o21ai_1
*I *2921:A1 I *D sky130_fd_sc_hd__a21o_1
*I *2941:A1 I *D sky130_fd_sc_hd__a21o_1
*I *2940:A1 I *D sky130_fd_sc_hd__o21ai_1
*I *2880:A2 I *D sky130_fd_sc_hd__o21ai_1
*I *2957:A1 I *D sky130_fd_sc_hd__mux2_1
*I *2955:A0 I *D sky130_fd_sc_hd__mux2_1
*I *2881:A2 I *D sky130_fd_sc_hd__a21o_1
*I *2901:A1 I *D sky130_fd_sc_hd__a21o_1
*I *2900:A1 I *D sky130_fd_sc_hd__o21ai_1
*I *3117:Q O *D sky130_fd_sc_hd__dfrtp_4
*CAP
1 *2920:A1 0.000130125
2 *2921:A1 0
3 *2941:A1 7.05497e-05
4 *2940:A1 0
5 *2880:A2 0
6 *2957:A1 0.00012261
7 *2955:A0 0.000459683
8 *2881:A2 7.23968e-05
9 *2901:A1 0.00010932
10 *2900:A1 0.000114064
11 *3117:Q 0.000480087
12 *425:124 0.000267376
13 *425:115 0.0002078
14 *425:73 0.000804465
15 *425:49 0.000269912
16 *425:45 0.00057407
17 *425:28 0.000820319
18 *425:20 0.00145536
19 *425:12 0.00107501
20 *425:10 0.000542294
21 *2880:B1 *425:20 0.000358971
22 *2881:B1 *2881:A2 4.08637e-05
23 *2881:B1 *2901:A1 0.00012249
24 *2881:B1 *425:20 5.52238e-05
25 *2881:B1 *425:49 5.49995e-05
26 *2900:A2 *425:45 5.01234e-05
27 *2900:B1 *2900:A1 3.48252e-05
28 *2921:A2 *2920:A1 0.000134926
29 *2921:B1 *2920:A1 2.09722e-05
30 *2921:B1 *425:10 1.12578e-05
31 *2940:B1 *425:20 2.86477e-05
32 *2941:A2 *2941:A1 2.85234e-05
33 *2941:A2 *425:10 3.29297e-05
34 *2941:A2 *425:12 0.000124012
35 *2941:A2 *425:20 7.89362e-05
36 *2941:A2 *425:124 2.59355e-05
37 *2954:A *2955:A0 0.000186662
38 *2955:S *2955:A0 3.99614e-06
39 *2956:A *2955:A0 3.18676e-05
40 *3009:A1 *2957:A1 0.000272027
41 *3009:A1 *425:73 0.000100823
42 *3010:A *2957:A1 1.98839e-05
43 *3137:CLK *2900:A1 5.48394e-05
44 *3138:CLK *2955:A0 0.000402784
45 *3138:D *2955:A0 6.50255e-05
46 *3145:CLK *425:12 2.28343e-05
47 *3145:CLK *425:20 0.000193596
48 *3153:CLK *2920:A1 9.58689e-05
49 *3196:A *425:28 0.000121905
50 *120:18 *2957:A1 0.00023437
51 *120:18 *425:49 5.03772e-05
52 *120:18 *425:73 0.000681306
53 *139:16 *2901:A1 4.73368e-05
54 *139:16 *2957:A1 0.000107956
55 *139:16 *425:45 7.51411e-05
56 *139:16 *425:73 0.000338281
57 *158:12 *425:10 0.00067252
58 *177:10 *425:10 0
59 *195:48 *2901:A1 5.49995e-05
60 *273:76 *425:28 8.85809e-05
61 *273:76 *425:73 0.000148557
62 *320:14 *2881:A2 1.98839e-05
63 *320:14 *425:49 8.86844e-05
64 *323:32 *2920:A1 1.47872e-05
65 *323:32 *2941:A1 1.62025e-05
66 *323:32 *425:124 4.31243e-05
67 *324:10 *2901:A1 1.07158e-05
68 *332:49 *2955:A0 8.25843e-06
69 *332:60 *2957:A1 3.57366e-05
70 *346:67 *425:10 0.00018372
71 *409:12 *2920:A1 5.50052e-05
72 *417:14 *2920:A1 1.62025e-05
73 *424:28 *2955:A0 0.000809556
*RES
1 *3117:Q *425:10 25.7107 
2 *425:10 *425:12 1.64286 
3 *425:12 *425:20 22.5 
4 *425:20 *425:28 12.3482 
5 *425:28 *2900:A1 15.9875 
6 *425:28 *425:45 4.83036 
7 *425:45 *425:49 6.67857 
8 *425:49 *2901:A1 20.7821 
9 *425:49 *2881:A2 10.675 
10 *425:45 *425:73 9.23214 
11 *425:73 *2955:A0 27.1214 
12 *425:73 *2957:A1 18.3357 
13 *425:20 *2880:A2 9.3 
14 *425:12 *2940:A1 13.8 
15 *425:10 *425:115 4.5 
16 *425:115 *2941:A1 10.2464 
17 *425:115 *425:124 1.76786 
18 *425:124 *2921:A1 9.3 
19 *425:124 *2920:A1 21.425 
*END

*D_NET *426 0.00963483
*CONN
*I *2903:A1 I *D sky130_fd_sc_hd__a21o_1
*I *2922:A1 I *D sky130_fd_sc_hd__o21ai_1
*I *2942:A1 I *D sky130_fd_sc_hd__o21ai_1
*I *2943:A1 I *D sky130_fd_sc_hd__a21o_1
*I *2923:A1 I *D sky130_fd_sc_hd__a21o_1
*I *2882:A2 I *D sky130_fd_sc_hd__o21ai_1
*I *2959:A1 I *D sky130_fd_sc_hd__mux2_1
*I *2883:A2 I *D sky130_fd_sc_hd__a21o_1
*I *2902:A1 I *D sky130_fd_sc_hd__o21ai_1
*I *2957:A0 I *D sky130_fd_sc_hd__mux2_1
*I *3118:Q O *D sky130_fd_sc_hd__dfrtp_4
*CAP
1 *2903:A1 0
2 *2922:A1 0
3 *2942:A1 9.52281e-05
4 *2943:A1 0.000653999
5 *2923:A1 0
6 *2882:A2 0
7 *2959:A1 0.000193042
8 *2883:A2 7.40974e-05
9 *2902:A1 0
10 *2957:A0 0.00020844
11 *3118:Q 0
12 *426:109 0.000273669
13 *426:90 0.000962307
14 *426:81 0.000610192
15 *426:61 0.000256229
16 *426:59 0.000766023
17 *426:38 0.000536294
18 *426:32 0.000436932
19 *426:23 0.000332757
20 *426:6 0.00034395
21 *2883:A1 *426:59 0.000144732
22 *2883:B1 *2883:A2 3.99614e-06
23 *2883:B1 *426:59 6.01956e-05
24 *2902:A2 *426:23 3.69047e-06
25 *2902:A2 *426:32 7.74146e-06
26 *2902:B1 *426:23 1.99099e-05
27 *2902:B1 *426:38 4.8476e-05
28 *2902:B1 *426:59 0.000128635
29 *2903:A2 *426:32 0
30 *2903:B1 *426:32 8.52803e-05
31 *2903:B1 *426:38 5.71472e-05
32 *2922:A2 *426:109 0
33 *2923:B1 *426:90 0
34 *2923:B1 *426:109 0
35 *2942:A2 *2942:A1 2.95726e-05
36 *2942:B1 *2942:A1 2.59355e-05
37 *2943:A2 *2943:A1 1.74352e-05
38 *2943:B1 *2942:A1 5.52302e-05
39 *2946:A *2943:A1 0.000137186
40 *2946:C *2943:A1 1.32552e-05
41 *3010:A *2957:A0 5.74499e-06
42 *3138:D *2957:A0 9.25014e-06
43 *3199:A *2883:A2 3.69047e-06
44 *3199:A *426:59 6.01151e-05
45 *120:18 *2957:A0 0
46 *120:18 *426:23 0
47 *120:18 *426:38 0.000441978
48 *120:18 *426:59 2.26327e-05
49 *124:16 *2883:A2 5.33005e-05
50 *124:16 *426:38 0.000539209
51 *124:16 *426:59 3.17148e-05
52 *139:16 *2957:A0 5.52238e-05
53 *156:16 *2883:A2 9.41642e-05
54 *156:16 *426:59 0
55 *182:12 *2943:A1 0.000209238
56 *184:16 *426:23 0
57 *320:8 *426:81 8.82684e-05
58 *320:8 *426:90 9.95914e-05
59 *320:8 *426:109 0.000123688
60 *324:31 *2957:A0 7.71321e-05
61 *324:31 *426:23 0.000103275
62 *332:60 *2957:A0 0.000100685
63 *332:97 *2959:A1 5.33005e-05
64 *332:116 *2959:A1 0.000213609
65 *332:116 *426:61 0.000104397
66 *332:116 *426:81 0.00042211
67 *410:8 *2943:A1 0.000140933
*RES
1 *3118:Q *426:6 13.8 
2 *426:6 *2957:A0 17.5143 
3 *426:6 *426:23 7.58929 
4 *426:23 *2902:A1 9.3 
5 *426:23 *426:32 2.91071 
6 *426:32 *426:38 13.6607 
7 *426:38 *2883:A2 15.4786 
8 *426:38 *426:59 10.2679 
9 *426:59 *426:61 1.35714 
10 *426:61 *2959:A1 12.7286 
11 *426:61 *2882:A2 9.3 
12 *426:59 *426:81 14.2679 
13 *426:81 *2923:A1 13.8 
14 *426:81 *426:90 2.55357 
15 *426:90 *2943:A1 23.175 
16 *426:90 *426:109 8.32143 
17 *426:109 *2942:A1 11.0679 
18 *426:109 *2922:A1 9.3 
19 *426:32 *2903:A1 9.3 
*END

*D_NET *427 0.0184219
*CONN
*I *2959:A0 I *D sky130_fd_sc_hd__mux2_1
*I *2870:A2 I *D sky130_fd_sc_hd__a21o_1
*I *2869:A2 I *D sky130_fd_sc_hd__o21ai_1
*I *2929:A1 I *D sky130_fd_sc_hd__o21ai_1
*I *2930:A1 I *D sky130_fd_sc_hd__a21o_1
*I *2909:A1 I *D sky130_fd_sc_hd__o21ai_1
*I *2961:A1 I *D sky130_fd_sc_hd__mux2_1
*I *2910:A1 I *D sky130_fd_sc_hd__a21o_1
*I *2889:A1 I *D sky130_fd_sc_hd__o21ai_1
*I *2890:A1 I *D sky130_fd_sc_hd__a21o_1
*I *3119:Q O *D sky130_fd_sc_hd__dfrtp_4
*CAP
1 *2959:A0 0
2 *2870:A2 0
3 *2869:A2 1.53865e-05
4 *2929:A1 0.000112613
5 *2930:A1 0
6 *2909:A1 0.000353987
7 *2961:A1 0.000405897
8 *2910:A1 6.95234e-05
9 *2889:A1 0
10 *2890:A1 0.00011078
11 *3119:Q 0.000327845
12 *427:105 0.000759883
13 *427:96 0.000504769
14 *427:78 0.000946755
15 *427:72 0.00112901
16 *427:70 0.000647723
17 *427:44 0.000918429
18 *427:34 0.000935103
19 *427:32 7.18138e-05
20 *427:28 0.00252903
21 *427:16 0.00278506
22 *427:28 *2918:A1 0.0002452
23 *427:28 *429:109 0.000100248
24 *2869:A1 *427:44 3.17163e-05
25 *2869:A1 *427:70 8.08873e-05
26 *2869:A1 *427:72 2.84026e-05
27 *2869:B1 *427:70 1.32056e-05
28 *2870:A1 *427:32 5.48388e-05
29 *2870:B1 *427:32 3.42816e-05
30 *2870:B1 *427:70 6.14594e-05
31 *2886:A *427:28 0.000266164
32 *2889:A2 *2890:A1 0.000126416
33 *2889:B1 *427:44 0.000273702
34 *2918:B1 *427:28 7.50601e-05
35 *2929:B1 *2929:A1 4.03318e-05
36 *2960:A *427:28 0.000100115
37 *2980:A1 *2961:A1 5.80706e-06
38 *2985:A0 *427:96 9.30279e-05
39 *2986:A *2909:A1 4.27842e-06
40 *2986:A *2961:A1 3.75868e-05
41 *2996:A *427:72 7.77652e-05
42 *3027:A0 *2910:A1 5.66971e-05
43 *3027:A0 *427:96 5.7661e-06
44 *3047:A0 *427:28 2.44318e-05
45 *3047:A1 *427:28 0.00083797
46 *3047:S *427:28 5.1908e-05
47 *3047:S *427:32 2.94004e-05
48 *3048:A *427:28 5.17614e-05
49 *3119:D *427:28 0.000143633
50 *3126:CLK *2909:A1 9.60939e-05
51 *3126:D *2909:A1 1.24529e-05
52 *3126:D *2961:A1 2.29112e-05
53 *3131:D *427:72 5.33005e-05
54 *3139:CLK *2961:A1 5.68713e-05
55 *3147:CLK *2909:A1 0
56 *109:12 *427:28 0.000141486
57 *156:16 *427:16 4.65199e-05
58 *166:8 *2909:A1 0.000101222
59 *166:8 *2961:A1 0.000161492
60 *175:12 *427:28 0.000240337
61 *194:108 *427:44 0
62 *202:44 *2929:A1 4.25716e-05
63 *203:102 *427:28 0
64 *203:125 *427:16 5.70853e-05
65 *206:59 *427:78 0
66 *206:59 *427:96 0
67 *207:137 *2961:A1 0
68 *207:149 *2909:A1 8.51662e-05
69 *273:50 *2961:A1 9.5171e-05
70 *276:78 *2909:A1 9.00789e-05
71 *277:17 *2890:A1 5.52238e-05
72 *277:90 *427:70 2.00997e-05
73 *277:90 *427:72 0.00010731
74 *318:24 *427:96 9.22371e-05
75 *318:28 *427:96 9.15842e-06
76 *325:41 *2910:A1 1.35465e-05
77 *325:41 *427:96 0.000146516
78 *335:12 *427:28 4.84667e-05
79 *338:24 *2909:A1 0.000224583
80 *343:113 *427:96 0.000220909
81 *343:120 *427:78 8.5662e-05
82 *343:120 *427:96 7.73758e-05
83 *348:70 *427:16 9.97164e-05
84 *411:23 *2909:A1 0.00019378
85 *413:12 *427:28 0.000148903
*RES
1 *3119:Q *427:16 23.6036 
2 *427:16 *427:28 49.1429 
3 *427:28 *427:32 1.78571 
4 *427:32 *427:34 4.5 
5 *427:34 *427:44 18.4107 
6 *427:44 *2890:A1 20.4786 
7 *427:44 *2889:A1 9.3 
8 *427:34 *427:70 7.82143 
9 *427:70 *427:72 8.33929 
10 *427:72 *427:78 12.625 
11 *427:78 *427:96 14.4464 
12 *427:96 *2910:A1 10.2464 
13 *427:96 *427:105 4.5 
14 *427:105 *2961:A1 23.3893 
15 *427:105 *2909:A1 22.2286 
16 *427:78 *2930:A1 13.8 
17 *427:72 *2929:A1 20.675 
18 *427:70 *2869:A2 9.72857 
19 *427:32 *2870:A2 9.3 
20 *427:16 *2959:A0 9.3 
*END

*D_NET *428 0.0167685
*CONN
*I *2963:A1 I *D sky130_fd_sc_hd__mux2_1
*I *2932:A1 I *D sky130_fd_sc_hd__a21o_1
*I *2911:A1 I *D sky130_fd_sc_hd__o21ai_1
*I *2912:A1 I *D sky130_fd_sc_hd__a21o_1
*I *2892:A1 I *D sky130_fd_sc_hd__a21o_1
*I *2872:A2 I *D sky130_fd_sc_hd__a21o_1
*I *2871:A2 I *D sky130_fd_sc_hd__o21ai_1
*I *2891:A1 I *D sky130_fd_sc_hd__o21ai_1
*I *2931:A1 I *D sky130_fd_sc_hd__o21ai_1
*I *2961:A0 I *D sky130_fd_sc_hd__mux2_1
*I *3120:Q O *D sky130_fd_sc_hd__dfrtp_4
*CAP
1 *2963:A1 0.000476195
2 *2932:A1 0
3 *2911:A1 0.000101591
4 *2912:A1 8.43219e-05
5 *2892:A1 0
6 *2872:A2 9.08561e-05
7 *2871:A2 0.000263238
8 *2891:A1 0
9 *2931:A1 0.000137326
10 *2961:A0 0.000149717
11 *3120:Q 0
12 *428:109 0.00020685
13 *428:94 0.000386211
14 *428:50 0.000401672
15 *428:46 0.000266266
16 *428:42 0.00112378
17 *428:29 0.0013054
18 *428:27 0.00159726
19 *428:16 0.00174596
20 *428:4 0.000753073
21 *2963:A1 *2963:A0 5.52238e-05
22 *2891:A2 *2871:A2 5.49544e-05
23 *2892:B1 *428:46 5.37741e-06
24 *2892:B1 *428:50 7.14923e-05
25 *2912:B1 *2911:A1 1.55885e-05
26 *2912:B1 *428:109 0.000101545
27 *2927:C *428:27 8.00806e-05
28 *2931:B1 *2931:A1 1.19402e-05
29 *2932:A2 *2931:A1 0
30 *2932:A2 *428:109 5.80706e-06
31 *2932:B1 *2931:A1 0
32 *2932:B1 *428:109 9.25014e-06
33 *2933:B1 *428:27 0
34 *2937:B *2931:A1 2.8266e-06
35 *2937:B *428:27 0.000278411
36 *2937:B *428:29 3.97543e-05
37 *2937:B *428:109 0
38 *2937:C *428:27 8.15939e-05
39 *2964:A *2963:A1 0.000139632
40 *2997:A0 *428:42 0.000142856
41 *2997:A1 *428:42 0.000267545
42 *2997:S *428:46 5.79582e-06
43 *2998:A *428:42 0.000528337
44 *3011:A0 *2963:A1 0.000125601
45 *3011:A1 *2963:A1 0.000360894
46 *3045:S *428:109 7.79781e-06
47 *3085:A0 *428:27 3.92854e-05
48 *3132:RESET_B *2871:A2 0.000174701
49 *3139:CLK *2961:A0 0.000262069
50 *3139:CLK *428:16 0.000356035
51 *3160:CLK *428:16 0
52 *3200:A *2872:A2 0.000269662
53 *3200:A *428:42 2.24225e-05
54 *166:8 *428:27 0.000477836
55 *173:10 *428:27 0
56 *202:27 *428:27 0
57 *203:6 *2912:A1 7.02611e-05
58 *203:6 *428:94 0.00019243
59 *206:29 *2931:A1 8.81343e-05
60 *206:40 *2931:A1 1.46624e-05
61 *206:40 *428:27 0.000423789
62 *206:40 *428:29 4.25809e-05
63 *206:59 *428:16 0.000127446
64 *207:22 *428:42 7.54972e-05
65 *207:105 *2911:A1 4.13595e-05
66 *207:105 *428:42 0.000268403
67 *207:105 *428:109 5.52238e-05
68 *207:118 *428:109 6.8646e-06
69 *332:20 *2963:A1 0.00133687
70 *332:20 *428:16 2.27416e-05
71 *332:20 *428:27 6.39997e-05
72 *343:37 *2963:A1 4.70078e-05
73 *343:57 *2963:A1 0.000188586
74 *343:57 *428:16 5.52302e-05
75 *343:113 *428:27 0.000101545
76 *396:12 *428:46 1.08359e-05
77 *396:21 *2872:A2 0.000143466
78 *396:21 *428:42 9.71197e-05
79 *404:12 *428:50 1.41029e-05
80 *404:25 *428:50 0.000196276
*RES
1 *3120:Q *428:4 9.3 
2 *428:4 *428:16 15.0179 
3 *428:16 *2961:A0 11.8893 
4 *428:16 *428:27 38.3214 
5 *428:27 *428:29 1.64286 
6 *428:29 *2931:A1 17.2643 
7 *428:29 *428:42 19.8214 
8 *428:42 *428:46 5.23214 
9 *428:46 *428:50 7.35714 
10 *428:50 *2891:A1 9.3 
11 *428:50 *2871:A2 14.1214 
12 *428:46 *2872:A2 17.2464 
13 *428:42 *2892:A1 9.3 
14 *428:27 *428:94 8.33929 
15 *428:94 *2912:A1 10.6571 
16 *428:94 *428:109 11.4821 
17 *428:109 *2911:A1 11.5143 
18 *428:109 *2932:A1 9.3 
19 *428:4 *2963:A1 26.8179 
*END

*D_NET *429 0.0150263
*CONN
*I *2963:A0 I *D sky130_fd_sc_hd__mux2_1
*I *2918:A1 I *D sky130_fd_sc_hd__o21ai_1
*I *2919:A1 I *D sky130_fd_sc_hd__a21o_1
*I *2879:A2 I *D sky130_fd_sc_hd__a21o_1
*I *2878:A2 I *D sky130_fd_sc_hd__o21ai_1
*I *2938:A1 I *D sky130_fd_sc_hd__o21ai_1
*I *2939:A1 I *D sky130_fd_sc_hd__a21o_1
*I *2899:A1 I *D sky130_fd_sc_hd__a21o_1
*I *2898:A1 I *D sky130_fd_sc_hd__o21ai_1
*I *2965:A1 I *D sky130_fd_sc_hd__mux2_1
*I *3121:Q O *D sky130_fd_sc_hd__dfrtp_4
*CAP
1 *2963:A0 0.000245624
2 *2918:A1 0.000136615
3 *2919:A1 0.000340434
4 *2879:A2 0.000125915
5 *2878:A2 0
6 *2938:A1 0.000277267
7 *2939:A1 0
8 *2899:A1 0
9 *2898:A1 9.19101e-05
10 *2965:A1 0.000153842
11 *3121:Q 0
12 *429:109 0.000558456
13 *429:67 0.00109132
14 *429:61 0.00105041
15 *429:57 0.000362273
16 *429:55 0.000633615
17 *429:35 0.000162989
18 *429:31 0.000703286
19 *429:18 0.0011494
20 *429:6 0.00116118
21 *2879:A1 *2879:A2 5.49995e-05
22 *2879:B1 *2879:A2 7.37386e-05
23 *2879:B1 *429:61 0.000260442
24 *2887:B *2963:A0 2.58997e-05
25 *2887:B *429:18 0.000111963
26 *2898:A2 *2898:A1 5.59013e-05
27 *2907:C *2965:A1 0.00010096
28 *2919:A2 *2919:A1 0.000186846
29 *2919:B1 *2919:A1 7.25873e-06
30 *2938:A2 *2938:A1 4.72917e-05
31 *2938:B1 *2938:A1 7.07672e-05
32 *2939:B1 *2938:A1 5.16002e-05
33 *2949:A *2965:A1 5.37709e-05
34 *2949:A *429:18 0.000259664
35 *2949:A *429:31 0.000161411
36 *2949:A *429:55 0.000605185
37 *2949:B *429:18 3.80953e-06
38 *2963:A1 *2963:A0 5.52238e-05
39 *2999:A0 *429:67 0
40 *2999:A1 *429:67 6.48098e-05
41 *2999:S *429:67 0.000171633
42 *3009:S *429:35 2.14658e-05
43 *3015:A0 *429:35 0.000266479
44 *3031:A0 *2919:A1 4.84159e-05
45 *3032:A *429:67 5.5782e-05
46 *3047:A1 *429:67 0
47 *3141:CLK *2898:A1 0.000139907
48 *3149:CLK *2918:A1 4.87953e-05
49 *3202:A *429:18 0.00013754
50 *125:22 *2898:A1 0.000139907
51 *153:16 *429:18 6.87574e-05
52 *163:24 *429:35 0.000307343
53 *182:12 *2918:A1 5.17614e-05
54 *199:118 *429:18 7.6644e-05
55 *203:102 *2898:A1 0.000144038
56 *203:102 *429:55 0
57 *203:125 *2919:A1 3.01245e-06
58 *273:10 *2965:A1 2.11419e-05
59 *283:8 *429:18 0.000358965
60 *327:10 *2965:A1 7.31613e-05
61 *332:20 *2963:A0 1.98839e-05
62 *332:29 *2963:A0 0.000358915
63 *332:33 *2965:A1 5.78654e-05
64 *332:33 *429:31 5.4061e-05
65 *332:33 *429:55 0.000107959
66 *335:12 *2918:A1 0.000127807
67 *335:12 *429:55 0.000255997
68 *335:12 *429:109 7.14533e-05
69 *338:49 *2963:A0 4.84853e-05
70 *342:69 *2938:A1 7.77751e-05
71 *342:71 *2938:A1 0
72 *342:71 *429:67 0
73 *343:37 *2963:A0 0.000401649
74 *344:49 *2938:A1 0
75 *344:49 *2963:A0 0.000197984
76 *344:49 *429:18 3.34366e-05
77 *344:49 *429:67 0
78 *397:14 *2879:A2 1.87331e-05
79 *397:14 *429:61 1.62025e-05
80 *397:14 *429:67 1.62025e-05
81 *405:12 *2898:A1 9.91086e-05
82 *421:14 *2938:A1 8.64819e-05
83 *427:28 *2918:A1 0.0002452
84 *427:28 *429:109 0.000100248
*RES
1 *3121:Q *429:6 13.8 
2 *429:6 *429:18 23.6071 
3 *429:18 *2965:A1 17.3 
4 *429:18 *429:31 2.25 
5 *429:31 *429:35 7.5 
6 *429:35 *2898:A1 21.6036 
7 *429:35 *2899:A1 9.3 
8 *429:31 *429:55 14.0893 
9 *429:55 *429:57 4.5 
10 *429:57 *429:61 3.73214 
11 *429:61 *429:67 17.5714 
12 *429:67 *2939:A1 13.8 
13 *429:67 *2938:A1 19.4071 
14 *429:61 *2878:A2 9.3 
15 *429:57 *2879:A2 12.2286 
16 *429:55 *429:109 1.94643 
17 *429:109 *2919:A1 18.4429 
18 *429:109 *2918:A1 18.3357 
19 *429:6 *2963:A0 23.4607 
*END

*D_NET *430 0.0115371
*CONN
*I *2965:A0 I *D sky130_fd_sc_hd__mux2_1
*I *2896:A1 I *D sky130_fd_sc_hd__a21o_1
*I *2895:A1 I *D sky130_fd_sc_hd__o21ai_1
*I *2875:A2 I *D sky130_fd_sc_hd__o21ai_1
*I *2876:A2 I *D sky130_fd_sc_hd__a21o_1
*I *2916:A1 I *D sky130_fd_sc_hd__a21o_1
*I *2936:A1 I *D sky130_fd_sc_hd__a21o_1
*I *2915:A1 I *D sky130_fd_sc_hd__o21ai_1
*I *2935:A1 I *D sky130_fd_sc_hd__o21ai_1
*I *3122:Q O *D sky130_fd_sc_hd__dfrtp_4
*CAP
1 *2965:A0 0.000161104
2 *2896:A1 4.37224e-05
3 *2895:A1 0.000241438
4 *2875:A2 0.000145475
5 *2876:A2 0
6 *2916:A1 2.59483e-05
7 *2936:A1 0
8 *2915:A1 0
9 *2935:A1 0.000184407
10 *3122:Q 0.000618407
11 *430:102 0.00104769
12 *430:36 0.000283915
13 *430:30 0.000249412
14 *430:26 0.000792366
15 *430:20 0.000751045
16 *430:16 0.000478162
17 *430:14 0.00108254
18 *430:10 0.000901359
19 *2876:A1 *430:26 0.000104974
20 *2876:B1 *430:26 0.000129868
21 *2896:A2 *2896:A1 6.05161e-06
22 *2916:A2 *430:30 0.000146261
23 *2916:B1 *2916:A1 4.84073e-05
24 *2935:B1 *2935:A1 7.79781e-06
25 *3001:A0 *430:26 0.000184664
26 *3001:A0 *430:30 0.000104132
27 *3001:A1 *430:26 0
28 *3018:A *2895:A1 0.000149365
29 *3034:A *430:30 8.00806e-05
30 *3034:A *430:36 3.57366e-05
31 *3049:A1 *2935:A1 0.000170654
32 *3049:A1 *430:30 8.06427e-05
33 *3122:CLK *430:14 0.000176234
34 *3122:D *2965:A0 3.57844e-05
35 *3122:D *430:14 1.99099e-05
36 *3122:RESET_B *430:10 4.50675e-05
37 *3137:CLK *430:102 0.000224582
38 *3142:D *2895:A1 0.000195547
39 *3166:RESET_B *2895:A1 0.000126905
40 *3166:RESET_B *430:102 7.27183e-05
41 *134:16 *2916:A1 9.84673e-05
42 *134:16 *430:26 0
43 *135:12 *2875:A2 0
44 *135:12 *430:26 0.000112532
45 *153:16 *430:26 0
46 *198:33 *2895:A1 0.00023909
47 *198:33 *430:102 6.93072e-05
48 *199:42 *2896:A1 1.04766e-05
49 *203:71 *430:102 7.74068e-05
50 *203:102 *430:102 0.000648446
51 *207:39 *2895:A1 5.52302e-05
52 *278:115 *430:102 0.000452565
53 *327:10 *2875:A2 0
54 *327:10 *2935:A1 0
55 *327:10 *2965:A0 9.77491e-05
56 *327:10 *430:14 1.50181e-05
57 *332:33 *2965:A0 1.41029e-05
58 *332:49 *2965:A0 8.06427e-05
59 *333:18 *2895:A1 5.71472e-05
60 *336:10 *2965:A0 0
61 *336:10 *430:14 0
62 *341:65 *430:30 0
63 *345:38 *2895:A1 0.000131481
64 *345:70 *430:10 0.000126639
65 *398:23 *2875:A2 9.25014e-06
66 *414:14 *430:30 7.89303e-05
67 *422:12 *2935:A1 1.02504e-05
*RES
1 *3122:Q *430:10 21.3357 
2 *430:10 *430:14 7.66071 
3 *430:14 *430:16 3 
4 *430:16 *430:20 2.19643 
5 *430:20 *430:26 17.1071 
6 *430:26 *430:30 9.17857 
7 *430:30 *430:36 1.80357 
8 *430:36 *2935:A1 21.8179 
9 *430:36 *2915:A1 9.3 
10 *430:30 *2936:A1 9.3 
11 *430:26 *2916:A1 14.7464 
12 *430:20 *2876:A2 9.3 
13 *430:16 *2875:A2 20.8536 
14 *430:14 *430:102 31 
15 *430:102 *2895:A1 22.6571 
16 *430:102 *2896:A1 14.3357 
17 *430:10 *2965:A0 18.175 
*END
