*SPEF "ieee 1481-1999"
*DESIGN "pattern_detector"
*DATE "11:11:11 Fri 11 11, 1111"
*VENDOR "OpenRCX"
*PROGRAM "Parallel Extraction"
*VERSION "1.0"
*DESIGN_FLOW "NAME_SCOPE LOCAL" "PIN_CAP NONE"
*DIVIDER /
*DELIMITER :
*BUS_DELIMITER []
*T_UNIT 1 NS
*C_UNIT 1 PF
*R_UNIT 1 OHM
*L_UNIT 1 HENRY

*NAME_MAP
*1 any_match
*2 cfg_en
*3 cfg_idx[0]
*4 cfg_idx[1]
*5 cfg_mask[0]
*6 cfg_mask[1]
*7 cfg_mask[2]
*8 cfg_mask[3]
*9 cfg_mask[4]
*10 cfg_mask[5]
*11 cfg_mask[6]
*12 cfg_mask[7]
*13 cfg_pattern[0]
*14 cfg_pattern[1]
*15 cfg_pattern[2]
*16 cfg_pattern[3]
*17 cfg_pattern[4]
*18 cfg_pattern[5]
*19 cfg_pattern[6]
*20 cfg_pattern[7]
*21 cfg_we
*22 clk
*23 data_in
*24 data_valid
*25 pattern_match[0]
*26 pattern_match[1]
*27 pattern_match[2]
*28 pattern_match[3]
*29 rst_n
*32 _000_
*33 _001_
*34 _002_
*35 _003_
*36 _004_
*37 _005_
*38 _006_
*39 _007_
*40 _008_
*41 _009_
*42 _010_
*43 _011_
*44 _012_
*45 _013_
*46 _014_
*47 _015_
*48 _016_
*49 _017_
*50 _018_
*51 _019_
*52 _020_
*53 _021_
*54 _022_
*55 _023_
*56 _024_
*57 _025_
*58 _026_
*59 _027_
*60 _028_
*61 _029_
*62 _030_
*63 _031_
*64 _032_
*65 _033_
*66 _034_
*67 _035_
*68 _036_
*69 _037_
*70 _038_
*71 _039_
*72 _040_
*73 _041_
*74 _042_
*75 _043_
*76 _044_
*77 _045_
*78 _046_
*79 _047_
*80 _048_
*81 _049_
*82 _050_
*83 _051_
*84 _052_
*85 _053_
*86 _054_
*87 _055_
*88 _056_
*89 _057_
*90 _058_
*91 _059_
*92 _060_
*93 _061_
*94 _062_
*95 _063_
*96 _064_
*97 _065_
*98 _066_
*99 _067_
*100 _068_
*101 _069_
*102 _070_
*103 _071_
*104 _072_
*105 _073_
*106 _074_
*107 _075_
*108 _076_
*109 _077_
*110 _078_
*111 _079_
*112 _080_
*113 _081_
*114 _082_
*115 _083_
*116 _084_
*117 _085_
*118 _086_
*119 _087_
*120 _088_
*121 _089_
*122 _090_
*123 _091_
*124 _092_
*125 _093_
*126 _094_
*127 _095_
*128 _096_
*129 _097_
*130 _098_
*131 _099_
*132 _100_
*133 _101_
*134 _102_
*135 _103_
*136 _104_
*137 _105_
*138 _106_
*139 _107_
*140 _108_
*141 _109_
*142 _110_
*143 _111_
*144 _112_
*145 _113_
*146 _114_
*147 _115_
*148 _116_
*149 _117_
*150 _118_
*151 _119_
*152 _120_
*153 _121_
*154 _122_
*155 _123_
*156 _124_
*157 _125_
*158 _126_
*159 _127_
*160 _128_
*161 _129_
*162 _130_
*163 _131_
*164 _132_
*165 _133_
*166 _134_
*167 _135_
*168 _136_
*169 _137_
*170 _138_
*171 _139_
*172 _140_
*173 _141_
*174 _142_
*175 _143_
*176 _144_
*177 _145_
*178 _146_
*179 _147_
*180 _148_
*181 _149_
*182 _150_
*183 _151_
*184 _152_
*185 _153_
*186 _154_
*187 _155_
*188 _156_
*189 _157_
*190 _158_
*191 _159_
*192 _160_
*193 _161_
*194 _162_
*195 _163_
*196 _164_
*197 _165_
*198 _166_
*199 _167_
*200 _168_
*201 _169_
*202 _170_
*203 _171_
*204 _172_
*205 _173_
*206 _174_
*207 _175_
*208 _176_
*209 _177_
*210 _178_
*211 _179_
*212 _180_
*213 _181_
*214 _182_
*215 _183_
*216 _184_
*217 _185_
*218 _186_
*219 _187_
*220 _188_
*221 _189_
*222 _190_
*223 _191_
*224 _192_
*225 _193_
*226 _194_
*227 _195_
*228 _196_
*229 _197_
*230 _198_
*231 _199_
*232 _200_
*233 _201_
*234 _202_
*235 _203_
*236 _204_
*237 _205_
*238 _206_
*239 _207_
*240 _208_
*241 _209_
*242 _210_
*243 _211_
*244 _212_
*245 _213_
*246 _214_
*247 _215_
*248 _216_
*249 _217_
*250 _218_
*251 _219_
*252 _220_
*253 _221_
*254 _222_
*255 _223_
*256 _224_
*257 _225_
*258 _226_
*259 _227_
*260 _228_
*261 _229_
*262 _230_
*263 _231_
*264 _232_
*265 _233_
*266 _234_
*267 _235_
*268 _236_
*269 _237_
*270 _238_
*271 _239_
*272 _240_
*273 clknet_0_clk
*274 clknet_3_0__leaf_clk
*275 clknet_3_1__leaf_clk
*276 clknet_3_2__leaf_clk
*277 clknet_3_3__leaf_clk
*278 clknet_3_4__leaf_clk
*279 clknet_3_5__leaf_clk
*280 clknet_3_6__leaf_clk
*281 clknet_3_7__leaf_clk
*282 enabled\[0\]
*283 enabled\[1\]
*284 enabled\[2\]
*285 enabled\[3\]
*286 masks\[0\]\[0\]
*287 masks\[0\]\[1\]
*288 masks\[0\]\[2\]
*289 masks\[0\]\[3\]
*290 masks\[0\]\[4\]
*291 masks\[0\]\[5\]
*292 masks\[0\]\[6\]
*293 masks\[0\]\[7\]
*294 masks\[1\]\[0\]
*295 masks\[1\]\[1\]
*296 masks\[1\]\[2\]
*297 masks\[1\]\[3\]
*298 masks\[1\]\[4\]
*299 masks\[1\]\[5\]
*300 masks\[1\]\[6\]
*301 masks\[1\]\[7\]
*302 masks\[2\]\[0\]
*303 masks\[2\]\[1\]
*304 masks\[2\]\[2\]
*305 masks\[2\]\[3\]
*306 masks\[2\]\[4\]
*307 masks\[2\]\[5\]
*308 masks\[2\]\[6\]
*309 masks\[2\]\[7\]
*310 masks\[3\]\[0\]
*311 masks\[3\]\[1\]
*312 masks\[3\]\[2\]
*313 masks\[3\]\[3\]
*314 masks\[3\]\[4\]
*315 masks\[3\]\[5\]
*316 masks\[3\]\[6\]
*317 masks\[3\]\[7\]
*318 net1
*319 net10
*320 net11
*321 net12
*322 net13
*323 net14
*324 net15
*325 net16
*326 net17
*327 net18
*328 net19
*329 net2
*330 net20
*331 net21
*332 net22
*333 net23
*334 net24
*335 net25
*336 net26
*337 net27
*338 net28
*339 net29
*340 net3
*341 net30
*342 net31
*343 net32
*344 net33
*345 net34
*346 net35
*347 net36
*348 net37
*349 net38
*350 net39
*351 net4
*352 net40
*353 net41
*354 net42
*355 net43
*356 net44
*357 net45
*358 net46
*359 net47
*360 net48
*361 net49
*362 net5
*363 net50
*364 net51
*365 net52
*366 net53
*367 net54
*368 net55
*369 net56
*370 net57
*371 net58
*372 net59
*373 net6
*374 net60
*375 net61
*376 net62
*377 net63
*378 net64
*379 net65
*380 net66
*381 net67
*382 net68
*383 net69
*384 net7
*385 net70
*386 net71
*387 net72
*388 net73
*389 net8
*390 net9
*391 patterns\[0\]\[0\]
*392 patterns\[0\]\[1\]
*393 patterns\[0\]\[2\]
*394 patterns\[0\]\[3\]
*395 patterns\[0\]\[4\]
*396 patterns\[0\]\[5\]
*397 patterns\[0\]\[6\]
*398 patterns\[0\]\[7\]
*399 patterns\[1\]\[0\]
*400 patterns\[1\]\[1\]
*401 patterns\[1\]\[2\]
*402 patterns\[1\]\[3\]
*403 patterns\[1\]\[4\]
*404 patterns\[1\]\[5\]
*405 patterns\[1\]\[6\]
*406 patterns\[1\]\[7\]
*407 patterns\[2\]\[0\]
*408 patterns\[2\]\[1\]
*409 patterns\[2\]\[2\]
*410 patterns\[2\]\[3\]
*411 patterns\[2\]\[4\]
*412 patterns\[2\]\[5\]
*413 patterns\[2\]\[6\]
*414 patterns\[2\]\[7\]
*415 patterns\[3\]\[0\]
*416 patterns\[3\]\[1\]
*417 patterns\[3\]\[2\]
*418 patterns\[3\]\[3\]
*419 patterns\[3\]\[4\]
*420 patterns\[3\]\[5\]
*421 patterns\[3\]\[6\]
*422 patterns\[3\]\[7\]
*423 shift_reg\[0\]
*424 shift_reg\[1\]
*425 shift_reg\[2\]
*426 shift_reg\[3\]
*427 shift_reg\[4\]
*428 shift_reg\[5\]
*429 shift_reg\[6\]
*430 shift_reg\[7\]
*431 FILLER_0_0_109
*432 FILLER_0_0_113
*433 FILLER_0_0_125
*434 FILLER_0_0_131
*435 FILLER_0_0_135
*436 FILLER_0_0_139
*437 FILLER_0_0_141
*438 FILLER_0_0_153
*439 FILLER_0_0_165
*440 FILLER_0_0_169
*441 FILLER_0_0_17
*442 FILLER_0_0_181
*443 FILLER_0_0_187
*444 FILLER_0_0_194
*445 FILLER_0_0_197
*446 FILLER_0_0_209
*447 FILLER_0_0_221
*448 FILLER_0_0_225
*449 FILLER_0_0_237
*450 FILLER_0_0_243
*451 FILLER_0_0_248
*452 FILLER_0_0_25
*453 FILLER_0_0_253
*454 FILLER_0_0_265
*455 FILLER_0_0_277
*456 FILLER_0_0_281
*457 FILLER_0_0_29
*458 FILLER_0_0_293
*459 FILLER_0_0_305
*460 FILLER_0_0_313
*461 FILLER_0_0_325
*462 FILLER_0_0_333
*463 FILLER_0_0_337
*464 FILLER_0_0_41
*465 FILLER_0_0_53
*466 FILLER_0_0_57
*467 FILLER_0_0_7
*468 FILLER_0_0_73
*469 FILLER_0_0_81
*470 FILLER_0_0_85
*471 FILLER_0_0_97
*472 FILLER_0_10_109
*473 FILLER_0_10_121
*474 FILLER_0_10_133
*475 FILLER_0_10_139
*476 FILLER_0_10_141
*477 FILLER_0_10_15
*478 FILLER_0_10_153
*479 FILLER_0_10_165
*480 FILLER_0_10_177
*481 FILLER_0_10_189
*482 FILLER_0_10_195
*483 FILLER_0_10_197
*484 FILLER_0_10_209
*485 FILLER_0_10_221
*486 FILLER_0_10_233
*487 FILLER_0_10_245
*488 FILLER_0_10_251
*489 FILLER_0_10_253
*490 FILLER_0_10_265
*491 FILLER_0_10_27
*492 FILLER_0_10_277
*493 FILLER_0_10_289
*494 FILLER_0_10_29
*495 FILLER_0_10_3
*496 FILLER_0_10_301
*497 FILLER_0_10_307
*498 FILLER_0_10_309
*499 FILLER_0_10_321
*500 FILLER_0_10_333
*501 FILLER_0_10_341
*502 FILLER_0_10_41
*503 FILLER_0_10_53
*504 FILLER_0_10_65
*505 FILLER_0_10_77
*506 FILLER_0_10_83
*507 FILLER_0_10_85
*508 FILLER_0_10_97
*509 FILLER_0_11_105
*510 FILLER_0_11_111
*511 FILLER_0_11_113
*512 FILLER_0_11_125
*513 FILLER_0_11_137
*514 FILLER_0_11_149
*515 FILLER_0_11_15
*516 FILLER_0_11_161
*517 FILLER_0_11_167
*518 FILLER_0_11_169
*519 FILLER_0_11_181
*520 FILLER_0_11_193
*521 FILLER_0_11_205
*522 FILLER_0_11_217
*523 FILLER_0_11_223
*524 FILLER_0_11_225
*525 FILLER_0_11_237
*526 FILLER_0_11_249
*527 FILLER_0_11_261
*528 FILLER_0_11_27
*529 FILLER_0_11_273
*530 FILLER_0_11_279
*531 FILLER_0_11_281
*532 FILLER_0_11_293
*533 FILLER_0_11_3
*534 FILLER_0_11_305
*535 FILLER_0_11_317
*536 FILLER_0_11_329
*537 FILLER_0_11_335
*538 FILLER_0_11_337
*539 FILLER_0_11_343
*540 FILLER_0_11_39
*541 FILLER_0_11_51
*542 FILLER_0_11_55
*543 FILLER_0_11_57
*544 FILLER_0_11_69
*545 FILLER_0_11_81
*546 FILLER_0_11_93
*547 FILLER_0_12_118
*548 FILLER_0_12_130
*549 FILLER_0_12_138
*550 FILLER_0_12_141
*551 FILLER_0_12_15
*552 FILLER_0_12_153
*553 FILLER_0_12_165
*554 FILLER_0_12_177
*555 FILLER_0_12_189
*556 FILLER_0_12_195
*557 FILLER_0_12_197
*558 FILLER_0_12_209
*559 FILLER_0_12_221
*560 FILLER_0_12_233
*561 FILLER_0_12_245
*562 FILLER_0_12_251
*563 FILLER_0_12_253
*564 FILLER_0_12_265
*565 FILLER_0_12_27
*566 FILLER_0_12_277
*567 FILLER_0_12_289
*568 FILLER_0_12_29
*569 FILLER_0_12_3
*570 FILLER_0_12_301
*571 FILLER_0_12_307
*572 FILLER_0_12_309
*573 FILLER_0_12_321
*574 FILLER_0_12_333
*575 FILLER_0_12_341
*576 FILLER_0_12_41
*577 FILLER_0_12_53
*578 FILLER_0_12_65
*579 FILLER_0_12_77
*580 FILLER_0_12_83
*581 FILLER_0_12_85
*582 FILLER_0_12_97
*583 FILLER_0_13_126
*584 FILLER_0_13_15
*585 FILLER_0_13_160
*586 FILLER_0_13_169
*587 FILLER_0_13_195
*588 FILLER_0_13_207
*589 FILLER_0_13_219
*590 FILLER_0_13_223
*591 FILLER_0_13_225
*592 FILLER_0_13_237
*593 FILLER_0_13_249
*594 FILLER_0_13_261
*595 FILLER_0_13_27
*596 FILLER_0_13_273
*597 FILLER_0_13_279
*598 FILLER_0_13_281
*599 FILLER_0_13_293
*600 FILLER_0_13_3
*601 FILLER_0_13_305
*602 FILLER_0_13_317
*603 FILLER_0_13_329
*604 FILLER_0_13_335
*605 FILLER_0_13_337
*606 FILLER_0_13_343
*607 FILLER_0_13_39
*608 FILLER_0_13_51
*609 FILLER_0_13_55
*610 FILLER_0_13_57
*611 FILLER_0_13_69
*612 FILLER_0_13_95
*613 FILLER_0_13_99
*614 FILLER_0_14_107
*615 FILLER_0_14_117
*616 FILLER_0_14_126
*617 FILLER_0_14_15
*618 FILLER_0_14_161
*619 FILLER_0_14_205
*620 FILLER_0_14_217
*621 FILLER_0_14_225
*622 FILLER_0_14_237
*623 FILLER_0_14_249
*624 FILLER_0_14_253
*625 FILLER_0_14_265
*626 FILLER_0_14_27
*627 FILLER_0_14_277
*628 FILLER_0_14_289
*629 FILLER_0_14_29
*630 FILLER_0_14_3
*631 FILLER_0_14_301
*632 FILLER_0_14_307
*633 FILLER_0_14_309
*634 FILLER_0_14_321
*635 FILLER_0_14_333
*636 FILLER_0_14_341
*637 FILLER_0_14_41
*638 FILLER_0_14_53
*639 FILLER_0_14_61
*640 FILLER_0_14_85
*641 FILLER_0_15_101
*642 FILLER_0_15_109
*643 FILLER_0_15_113
*644 FILLER_0_15_125
*645 FILLER_0_15_137
*646 FILLER_0_15_143
*647 FILLER_0_15_15
*648 FILLER_0_15_161
*649 FILLER_0_15_167
*650 FILLER_0_15_169
*651 FILLER_0_15_181
*652 FILLER_0_15_211
*653 FILLER_0_15_219
*654 FILLER_0_15_253
*655 FILLER_0_15_259
*656 FILLER_0_15_27
*657 FILLER_0_15_281
*658 FILLER_0_15_293
*659 FILLER_0_15_3
*660 FILLER_0_15_305
*661 FILLER_0_15_317
*662 FILLER_0_15_329
*663 FILLER_0_15_335
*664 FILLER_0_15_337
*665 FILLER_0_15_343
*666 FILLER_0_15_39
*667 FILLER_0_15_51
*668 FILLER_0_15_55
*669 FILLER_0_15_57
*670 FILLER_0_15_69
*671 FILLER_0_15_80
*672 FILLER_0_16_109
*673 FILLER_0_16_121
*674 FILLER_0_16_133
*675 FILLER_0_16_139
*676 FILLER_0_16_141
*677 FILLER_0_16_15
*678 FILLER_0_16_153
*679 FILLER_0_16_179
*680 FILLER_0_16_191
*681 FILLER_0_16_195
*682 FILLER_0_16_197
*683 FILLER_0_16_205
*684 FILLER_0_16_218
*685 FILLER_0_16_250
*686 FILLER_0_16_253
*687 FILLER_0_16_27
*688 FILLER_0_16_280
*689 FILLER_0_16_29
*690 FILLER_0_16_292
*691 FILLER_0_16_3
*692 FILLER_0_16_304
*693 FILLER_0_16_309
*694 FILLER_0_16_321
*695 FILLER_0_16_333
*696 FILLER_0_16_341
*697 FILLER_0_16_41
*698 FILLER_0_16_53
*699 FILLER_0_16_65
*700 FILLER_0_16_77
*701 FILLER_0_16_83
*702 FILLER_0_16_85
*703 FILLER_0_16_97
*704 FILLER_0_17_100
*705 FILLER_0_17_133
*706 FILLER_0_17_145
*707 FILLER_0_17_15
*708 FILLER_0_17_157
*709 FILLER_0_17_169
*710 FILLER_0_17_181
*711 FILLER_0_17_193
*712 FILLER_0_17_221
*713 FILLER_0_17_225
*714 FILLER_0_17_238
*715 FILLER_0_17_247
*716 FILLER_0_17_259
*717 FILLER_0_17_27
*718 FILLER_0_17_278
*719 FILLER_0_17_281
*720 FILLER_0_17_293
*721 FILLER_0_17_3
*722 FILLER_0_17_305
*723 FILLER_0_17_317
*724 FILLER_0_17_329
*725 FILLER_0_17_335
*726 FILLER_0_17_337
*727 FILLER_0_17_343
*728 FILLER_0_17_39
*729 FILLER_0_17_51
*730 FILLER_0_17_55
*731 FILLER_0_17_57
*732 FILLER_0_17_69
*733 FILLER_0_17_76
*734 FILLER_0_17_88
*735 FILLER_0_18_110
*736 FILLER_0_18_138
*737 FILLER_0_18_145
*738 FILLER_0_18_15
*739 FILLER_0_18_157
*740 FILLER_0_18_182
*741 FILLER_0_18_194
*742 FILLER_0_18_197
*743 FILLER_0_18_201
*744 FILLER_0_18_206
*745 FILLER_0_18_214
*746 FILLER_0_18_225
*747 FILLER_0_18_237
*748 FILLER_0_18_249
*749 FILLER_0_18_253
*750 FILLER_0_18_265
*751 FILLER_0_18_27
*752 FILLER_0_18_283
*753 FILLER_0_18_29
*754 FILLER_0_18_295
*755 FILLER_0_18_3
*756 FILLER_0_18_307
*757 FILLER_0_18_309
*758 FILLER_0_18_321
*759 FILLER_0_18_333
*760 FILLER_0_18_339
*761 FILLER_0_18_41
*762 FILLER_0_18_53
*763 FILLER_0_18_59
*764 FILLER_0_18_63
*765 FILLER_0_18_98
*766 FILLER_0_19_106
*767 FILLER_0_19_113
*768 FILLER_0_19_130
*769 FILLER_0_19_139
*770 FILLER_0_19_146
*771 FILLER_0_19_15
*772 FILLER_0_19_158
*773 FILLER_0_19_163
*774 FILLER_0_19_167
*775 FILLER_0_19_169
*776 FILLER_0_19_181
*777 FILLER_0_19_193
*778 FILLER_0_19_217
*779 FILLER_0_19_223
*780 FILLER_0_19_225
*781 FILLER_0_19_237
*782 FILLER_0_19_249
*783 FILLER_0_19_261
*784 FILLER_0_19_27
*785 FILLER_0_19_273
*786 FILLER_0_19_279
*787 FILLER_0_19_281
*788 FILLER_0_19_293
*789 FILLER_0_19_3
*790 FILLER_0_19_305
*791 FILLER_0_19_317
*792 FILLER_0_19_329
*793 FILLER_0_19_335
*794 FILLER_0_19_337
*795 FILLER_0_19_343
*796 FILLER_0_19_39
*797 FILLER_0_19_51
*798 FILLER_0_19_55
*799 FILLER_0_19_77
*800 FILLER_0_19_81
*801 FILLER_0_19_86
*802 FILLER_0_19_93
*803 FILLER_0_19_99
*804 FILLER_0_1_105
*805 FILLER_0_1_111
*806 FILLER_0_1_113
*807 FILLER_0_1_125
*808 FILLER_0_1_137
*809 FILLER_0_1_149
*810 FILLER_0_1_15
*811 FILLER_0_1_161
*812 FILLER_0_1_167
*813 FILLER_0_1_169
*814 FILLER_0_1_181
*815 FILLER_0_1_193
*816 FILLER_0_1_205
*817 FILLER_0_1_217
*818 FILLER_0_1_223
*819 FILLER_0_1_225
*820 FILLER_0_1_237
*821 FILLER_0_1_249
*822 FILLER_0_1_261
*823 FILLER_0_1_27
*824 FILLER_0_1_273
*825 FILLER_0_1_279
*826 FILLER_0_1_281
*827 FILLER_0_1_293
*828 FILLER_0_1_3
*829 FILLER_0_1_305
*830 FILLER_0_1_317
*831 FILLER_0_1_329
*832 FILLER_0_1_335
*833 FILLER_0_1_337
*834 FILLER_0_1_39
*835 FILLER_0_1_51
*836 FILLER_0_1_55
*837 FILLER_0_1_57
*838 FILLER_0_1_69
*839 FILLER_0_1_81
*840 FILLER_0_1_93
*841 FILLER_0_20_102
*842 FILLER_0_20_110
*843 FILLER_0_20_115
*844 FILLER_0_20_125
*845 FILLER_0_20_137
*846 FILLER_0_20_141
*847 FILLER_0_20_15
*848 FILLER_0_20_153
*849 FILLER_0_20_183
*850 FILLER_0_20_191
*851 FILLER_0_20_197
*852 FILLER_0_20_209
*853 FILLER_0_20_230
*854 FILLER_0_20_237
*855 FILLER_0_20_249
*856 FILLER_0_20_253
*857 FILLER_0_20_265
*858 FILLER_0_20_27
*859 FILLER_0_20_29
*860 FILLER_0_20_296
*861 FILLER_0_20_3
*862 FILLER_0_20_309
*863 FILLER_0_20_321
*864 FILLER_0_20_333
*865 FILLER_0_20_341
*866 FILLER_0_20_41
*867 FILLER_0_20_53
*868 FILLER_0_20_74
*869 FILLER_0_20_82
*870 FILLER_0_20_91
*871 FILLER_0_20_95
*872 FILLER_0_21_113
*873 FILLER_0_21_125
*874 FILLER_0_21_137
*875 FILLER_0_21_15
*876 FILLER_0_21_152
*877 FILLER_0_21_164
*878 FILLER_0_21_175
*879 FILLER_0_21_187
*880 FILLER_0_21_195
*881 FILLER_0_21_211
*882 FILLER_0_21_223
*883 FILLER_0_21_225
*884 FILLER_0_21_27
*885 FILLER_0_21_279
*886 FILLER_0_21_3
*887 FILLER_0_21_307
*888 FILLER_0_21_319
*889 FILLER_0_21_331
*890 FILLER_0_21_335
*891 FILLER_0_21_337
*892 FILLER_0_21_343
*893 FILLER_0_21_39
*894 FILLER_0_21_51
*895 FILLER_0_21_55
*896 FILLER_0_21_57
*897 FILLER_0_21_89
*898 FILLER_0_22_109
*899 FILLER_0_22_121
*900 FILLER_0_22_133
*901 FILLER_0_22_139
*902 FILLER_0_22_141
*903 FILLER_0_22_15
*904 FILLER_0_22_153
*905 FILLER_0_22_165
*906 FILLER_0_22_177
*907 FILLER_0_22_189
*908 FILLER_0_22_195
*909 FILLER_0_22_197
*910 FILLER_0_22_209
*911 FILLER_0_22_221
*912 FILLER_0_22_262
*913 FILLER_0_22_27
*914 FILLER_0_22_29
*915 FILLER_0_22_298
*916 FILLER_0_22_3
*917 FILLER_0_22_306
*918 FILLER_0_22_309
*919 FILLER_0_22_321
*920 FILLER_0_22_333
*921 FILLER_0_22_341
*922 FILLER_0_22_41
*923 FILLER_0_22_53
*924 FILLER_0_22_65
*925 FILLER_0_22_77
*926 FILLER_0_22_83
*927 FILLER_0_22_85
*928 FILLER_0_22_97
*929 FILLER_0_23_105
*930 FILLER_0_23_111
*931 FILLER_0_23_133
*932 FILLER_0_23_145
*933 FILLER_0_23_157
*934 FILLER_0_23_169
*935 FILLER_0_23_179
*936 FILLER_0_23_18
*937 FILLER_0_23_191
*938 FILLER_0_23_203
*939 FILLER_0_23_215
*940 FILLER_0_23_223
*941 FILLER_0_23_225
*942 FILLER_0_23_229
*943 FILLER_0_23_248
*944 FILLER_0_23_260
*945 FILLER_0_23_272
*946 FILLER_0_23_281
*947 FILLER_0_23_293
*948 FILLER_0_23_30
*949 FILLER_0_23_305
*950 FILLER_0_23_317
*951 FILLER_0_23_329
*952 FILLER_0_23_335
*953 FILLER_0_23_337
*954 FILLER_0_23_343
*955 FILLER_0_23_42
*956 FILLER_0_23_54
*957 FILLER_0_23_57
*958 FILLER_0_23_6
*959 FILLER_0_23_69
*960 FILLER_0_23_81
*961 FILLER_0_23_93
*962 FILLER_0_24_101
*963 FILLER_0_24_137
*964 FILLER_0_24_148
*965 FILLER_0_24_15
*966 FILLER_0_24_160
*967 FILLER_0_24_182
*968 FILLER_0_24_193
*969 FILLER_0_24_206
*970 FILLER_0_24_218
*971 FILLER_0_24_236
*972 FILLER_0_24_248
*973 FILLER_0_24_253
*974 FILLER_0_24_265
*975 FILLER_0_24_27
*976 FILLER_0_24_277
*977 FILLER_0_24_289
*978 FILLER_0_24_29
*979 FILLER_0_24_3
*980 FILLER_0_24_301
*981 FILLER_0_24_307
*982 FILLER_0_24_309
*983 FILLER_0_24_321
*984 FILLER_0_24_333
*985 FILLER_0_24_341
*986 FILLER_0_24_41
*987 FILLER_0_24_53
*988 FILLER_0_24_61
*989 FILLER_0_24_82
*990 FILLER_0_24_95
*991 FILLER_0_25_111
*992 FILLER_0_25_128
*993 FILLER_0_25_15
*994 FILLER_0_25_151
*995 FILLER_0_25_163
*996 FILLER_0_25_167
*997 FILLER_0_25_169
*998 FILLER_0_25_177
*999 FILLER_0_25_184
*1000 FILLER_0_25_213
*1001 FILLER_0_25_221
*1002 FILLER_0_25_225
*1003 FILLER_0_25_237
*1004 FILLER_0_25_249
*1005 FILLER_0_25_261
*1006 FILLER_0_25_27
*1007 FILLER_0_25_273
*1008 FILLER_0_25_279
*1009 FILLER_0_25_281
*1010 FILLER_0_25_293
*1011 FILLER_0_25_3
*1012 FILLER_0_25_305
*1013 FILLER_0_25_317
*1014 FILLER_0_25_329
*1015 FILLER_0_25_335
*1016 FILLER_0_25_337
*1017 FILLER_0_25_343
*1018 FILLER_0_25_39
*1019 FILLER_0_25_51
*1020 FILLER_0_25_55
*1021 FILLER_0_25_57
*1022 FILLER_0_25_65
*1023 FILLER_0_25_91
*1024 FILLER_0_25_99
*1025 FILLER_0_26_102
*1026 FILLER_0_26_108
*1027 FILLER_0_26_112
*1028 FILLER_0_26_122
*1029 FILLER_0_26_139
*1030 FILLER_0_26_144
*1031 FILLER_0_26_15
*1032 FILLER_0_26_156
*1033 FILLER_0_26_168
*1034 FILLER_0_26_178
*1035 FILLER_0_26_190
*1036 FILLER_0_26_197
*1037 FILLER_0_26_209
*1038 FILLER_0_26_221
*1039 FILLER_0_26_233
*1040 FILLER_0_26_245
*1041 FILLER_0_26_251
*1042 FILLER_0_26_27
*1043 FILLER_0_26_276
*1044 FILLER_0_26_288
*1045 FILLER_0_26_29
*1046 FILLER_0_26_299
*1047 FILLER_0_26_3
*1048 FILLER_0_26_307
*1049 FILLER_0_26_309
*1050 FILLER_0_26_321
*1051 FILLER_0_26_333
*1052 FILLER_0_26_341
*1053 FILLER_0_26_41
*1054 FILLER_0_26_67
*1055 FILLER_0_26_73
*1056 FILLER_0_26_83
*1057 FILLER_0_27_105
*1058 FILLER_0_27_111
*1059 FILLER_0_27_113
*1060 FILLER_0_27_125
*1061 FILLER_0_27_137
*1062 FILLER_0_27_149
*1063 FILLER_0_27_15
*1064 FILLER_0_27_161
*1065 FILLER_0_27_167
*1066 FILLER_0_27_169
*1067 FILLER_0_27_181
*1068 FILLER_0_27_206
*1069 FILLER_0_27_218
*1070 FILLER_0_27_225
*1071 FILLER_0_27_237
*1072 FILLER_0_27_241
*1073 FILLER_0_27_265
*1074 FILLER_0_27_27
*1075 FILLER_0_27_277
*1076 FILLER_0_27_281
*1077 FILLER_0_27_3
*1078 FILLER_0_27_314
*1079 FILLER_0_27_326
*1080 FILLER_0_27_334
*1081 FILLER_0_27_337
*1082 FILLER_0_27_343
*1083 FILLER_0_27_39
*1084 FILLER_0_27_51
*1085 FILLER_0_27_57
*1086 FILLER_0_27_68
*1087 FILLER_0_27_76
*1088 FILLER_0_27_81
*1089 FILLER_0_27_93
*1090 FILLER_0_28_109
*1091 FILLER_0_28_121
*1092 FILLER_0_28_133
*1093 FILLER_0_28_15
*1094 FILLER_0_28_154
*1095 FILLER_0_28_166
*1096 FILLER_0_28_178
*1097 FILLER_0_28_187
*1098 FILLER_0_28_195
*1099 FILLER_0_28_197
*1100 FILLER_0_28_209
*1101 FILLER_0_28_233
*1102 FILLER_0_28_245
*1103 FILLER_0_28_262
*1104 FILLER_0_28_27
*1105 FILLER_0_28_274
*1106 FILLER_0_28_286
*1107 FILLER_0_28_29
*1108 FILLER_0_28_3
*1109 FILLER_0_28_309
*1110 FILLER_0_28_321
*1111 FILLER_0_28_333
*1112 FILLER_0_28_337
*1113 FILLER_0_28_41
*1114 FILLER_0_28_53
*1115 FILLER_0_28_65
*1116 FILLER_0_28_77
*1117 FILLER_0_28_83
*1118 FILLER_0_28_85
*1119 FILLER_0_28_97
*1120 FILLER_0_29_102
*1121 FILLER_0_29_110
*1122 FILLER_0_29_113
*1123 FILLER_0_29_126
*1124 FILLER_0_29_138
*1125 FILLER_0_29_15
*1126 FILLER_0_29_150
*1127 FILLER_0_29_162
*1128 FILLER_0_29_180
*1129 FILLER_0_29_196
*1130 FILLER_0_29_237
*1131 FILLER_0_29_249
*1132 FILLER_0_29_264
*1133 FILLER_0_29_27
*1134 FILLER_0_29_276
*1135 FILLER_0_29_281
*1136 FILLER_0_29_3
*1137 FILLER_0_29_303
*1138 FILLER_0_29_315
*1139 FILLER_0_29_327
*1140 FILLER_0_29_335
*1141 FILLER_0_29_337
*1142 FILLER_0_29_343
*1143 FILLER_0_29_39
*1144 FILLER_0_29_51
*1145 FILLER_0_29_55
*1146 FILLER_0_29_57
*1147 FILLER_0_29_69
*1148 FILLER_0_29_77
*1149 FILLER_0_29_90
*1150 FILLER_0_2_109
*1151 FILLER_0_2_121
*1152 FILLER_0_2_133
*1153 FILLER_0_2_139
*1154 FILLER_0_2_141
*1155 FILLER_0_2_153
*1156 FILLER_0_2_165
*1157 FILLER_0_2_177
*1158 FILLER_0_2_18
*1159 FILLER_0_2_189
*1160 FILLER_0_2_195
*1161 FILLER_0_2_197
*1162 FILLER_0_2_209
*1163 FILLER_0_2_221
*1164 FILLER_0_2_233
*1165 FILLER_0_2_245
*1166 FILLER_0_2_251
*1167 FILLER_0_2_253
*1168 FILLER_0_2_26
*1169 FILLER_0_2_265
*1170 FILLER_0_2_277
*1171 FILLER_0_2_289
*1172 FILLER_0_2_29
*1173 FILLER_0_2_301
*1174 FILLER_0_2_307
*1175 FILLER_0_2_309
*1176 FILLER_0_2_321
*1177 FILLER_0_2_333
*1178 FILLER_0_2_341
*1179 FILLER_0_2_41
*1180 FILLER_0_2_53
*1181 FILLER_0_2_6
*1182 FILLER_0_2_65
*1183 FILLER_0_2_77
*1184 FILLER_0_2_83
*1185 FILLER_0_2_85
*1186 FILLER_0_2_97
*1187 FILLER_0_30_104
*1188 FILLER_0_30_110
*1189 FILLER_0_30_139
*1190 FILLER_0_30_141
*1191 FILLER_0_30_15
*1192 FILLER_0_30_168
*1193 FILLER_0_30_189
*1194 FILLER_0_30_195
*1195 FILLER_0_30_197
*1196 FILLER_0_30_209
*1197 FILLER_0_30_234
*1198 FILLER_0_30_246
*1199 FILLER_0_30_253
*1200 FILLER_0_30_268
*1201 FILLER_0_30_27
*1202 FILLER_0_30_277
*1203 FILLER_0_30_289
*1204 FILLER_0_30_29
*1205 FILLER_0_30_294
*1206 FILLER_0_30_3
*1207 FILLER_0_30_306
*1208 FILLER_0_30_309
*1209 FILLER_0_30_321
*1210 FILLER_0_30_329
*1211 FILLER_0_30_333
*1212 FILLER_0_30_341
*1213 FILLER_0_30_41
*1214 FILLER_0_30_53
*1215 FILLER_0_30_65
*1216 FILLER_0_30_76
*1217 FILLER_0_30_92
*1218 FILLER_0_31_107
*1219 FILLER_0_31_111
*1220 FILLER_0_31_113
*1221 FILLER_0_31_118
*1222 FILLER_0_31_130
*1223 FILLER_0_31_142
*1224 FILLER_0_31_15
*1225 FILLER_0_31_150
*1226 FILLER_0_31_160
*1227 FILLER_0_31_177
*1228 FILLER_0_31_187
*1229 FILLER_0_31_199
*1230 FILLER_0_31_211
*1231 FILLER_0_31_220
*1232 FILLER_0_31_235
*1233 FILLER_0_31_247
*1234 FILLER_0_31_27
*1235 FILLER_0_31_274
*1236 FILLER_0_31_281
*1237 FILLER_0_31_293
*1238 FILLER_0_31_3
*1239 FILLER_0_31_305
*1240 FILLER_0_31_317
*1241 FILLER_0_31_329
*1242 FILLER_0_31_335
*1243 FILLER_0_31_337
*1244 FILLER_0_31_343
*1245 FILLER_0_31_39
*1246 FILLER_0_31_51
*1247 FILLER_0_31_55
*1248 FILLER_0_31_57
*1249 FILLER_0_31_65
*1250 FILLER_0_31_95
*1251 FILLER_0_32_104
*1252 FILLER_0_32_116
*1253 FILLER_0_32_128
*1254 FILLER_0_32_15
*1255 FILLER_0_32_195
*1256 FILLER_0_32_201
*1257 FILLER_0_32_213
*1258 FILLER_0_32_225
*1259 FILLER_0_32_237
*1260 FILLER_0_32_249
*1261 FILLER_0_32_253
*1262 FILLER_0_32_257
*1263 FILLER_0_32_27
*1264 FILLER_0_32_273
*1265 FILLER_0_32_285
*1266 FILLER_0_32_29
*1267 FILLER_0_32_297
*1268 FILLER_0_32_3
*1269 FILLER_0_32_305
*1270 FILLER_0_32_309
*1271 FILLER_0_32_321
*1272 FILLER_0_32_333
*1273 FILLER_0_32_341
*1274 FILLER_0_32_41
*1275 FILLER_0_32_53
*1276 FILLER_0_32_59
*1277 FILLER_0_32_63
*1278 FILLER_0_32_74
*1279 FILLER_0_32_82
*1280 FILLER_0_32_85
*1281 FILLER_0_33_107
*1282 FILLER_0_33_111
*1283 FILLER_0_33_113
*1284 FILLER_0_33_124
*1285 FILLER_0_33_136
*1286 FILLER_0_33_151
*1287 FILLER_0_33_163
*1288 FILLER_0_33_167
*1289 FILLER_0_33_169
*1290 FILLER_0_33_175
*1291 FILLER_0_33_187
*1292 FILLER_0_33_199
*1293 FILLER_0_33_21
*1294 FILLER_0_33_211
*1295 FILLER_0_33_223
*1296 FILLER_0_33_225
*1297 FILLER_0_33_237
*1298 FILLER_0_33_249
*1299 FILLER_0_33_276
*1300 FILLER_0_33_281
*1301 FILLER_0_33_287
*1302 FILLER_0_33_304
*1303 FILLER_0_33_316
*1304 FILLER_0_33_328
*1305 FILLER_0_33_33
*1306 FILLER_0_33_337
*1307 FILLER_0_33_343
*1308 FILLER_0_33_45
*1309 FILLER_0_33_53
*1310 FILLER_0_33_77
*1311 FILLER_0_33_83
*1312 FILLER_0_33_9
*1313 FILLER_0_34_104
*1314 FILLER_0_34_127
*1315 FILLER_0_34_139
*1316 FILLER_0_34_141
*1317 FILLER_0_34_145
*1318 FILLER_0_34_15
*1319 FILLER_0_34_155
*1320 FILLER_0_34_167
*1321 FILLER_0_34_179
*1322 FILLER_0_34_190
*1323 FILLER_0_34_197
*1324 FILLER_0_34_209
*1325 FILLER_0_34_230
*1326 FILLER_0_34_242
*1327 FILLER_0_34_250
*1328 FILLER_0_34_253
*1329 FILLER_0_34_261
*1330 FILLER_0_34_267
*1331 FILLER_0_34_27
*1332 FILLER_0_34_279
*1333 FILLER_0_34_29
*1334 FILLER_0_34_3
*1335 FILLER_0_34_315
*1336 FILLER_0_34_327
*1337 FILLER_0_34_339
*1338 FILLER_0_34_343
*1339 FILLER_0_34_41
*1340 FILLER_0_34_53
*1341 FILLER_0_34_65
*1342 FILLER_0_34_85
*1343 FILLER_0_34_96
*1344 FILLER_0_35_116
*1345 FILLER_0_35_124
*1346 FILLER_0_35_131
*1347 FILLER_0_35_137
*1348 FILLER_0_35_15
*1349 FILLER_0_35_166
*1350 FILLER_0_35_169
*1351 FILLER_0_35_181
*1352 FILLER_0_35_193
*1353 FILLER_0_35_205
*1354 FILLER_0_35_209
*1355 FILLER_0_35_213
*1356 FILLER_0_35_223
*1357 FILLER_0_35_231
*1358 FILLER_0_35_266
*1359 FILLER_0_35_27
*1360 FILLER_0_35_278
*1361 FILLER_0_35_281
*1362 FILLER_0_35_285
*1363 FILLER_0_35_3
*1364 FILLER_0_35_315
*1365 FILLER_0_35_327
*1366 FILLER_0_35_335
*1367 FILLER_0_35_337
*1368 FILLER_0_35_343
*1369 FILLER_0_35_39
*1370 FILLER_0_35_51
*1371 FILLER_0_35_55
*1372 FILLER_0_35_57
*1373 FILLER_0_35_89
*1374 FILLER_0_36_109
*1375 FILLER_0_36_121
*1376 FILLER_0_36_129
*1377 FILLER_0_36_137
*1378 FILLER_0_36_141
*1379 FILLER_0_36_15
*1380 FILLER_0_36_153
*1381 FILLER_0_36_165
*1382 FILLER_0_36_177
*1383 FILLER_0_36_189
*1384 FILLER_0_36_195
*1385 FILLER_0_36_197
*1386 FILLER_0_36_232
*1387 FILLER_0_36_244
*1388 FILLER_0_36_253
*1389 FILLER_0_36_265
*1390 FILLER_0_36_27
*1391 FILLER_0_36_277
*1392 FILLER_0_36_289
*1393 FILLER_0_36_29
*1394 FILLER_0_36_3
*1395 FILLER_0_36_300
*1396 FILLER_0_36_317
*1397 FILLER_0_36_329
*1398 FILLER_0_36_341
*1399 FILLER_0_36_41
*1400 FILLER_0_36_53
*1401 FILLER_0_36_65
*1402 FILLER_0_36_77
*1403 FILLER_0_36_83
*1404 FILLER_0_36_85
*1405 FILLER_0_36_97
*1406 FILLER_0_37_105
*1407 FILLER_0_37_111
*1408 FILLER_0_37_113
*1409 FILLER_0_37_125
*1410 FILLER_0_37_137
*1411 FILLER_0_37_149
*1412 FILLER_0_37_15
*1413 FILLER_0_37_161
*1414 FILLER_0_37_167
*1415 FILLER_0_37_178
*1416 FILLER_0_37_189
*1417 FILLER_0_37_201
*1418 FILLER_0_37_209
*1419 FILLER_0_37_213
*1420 FILLER_0_37_223
*1421 FILLER_0_37_229
*1422 FILLER_0_37_241
*1423 FILLER_0_37_253
*1424 FILLER_0_37_265
*1425 FILLER_0_37_27
*1426 FILLER_0_37_277
*1427 FILLER_0_37_281
*1428 FILLER_0_37_293
*1429 FILLER_0_37_3
*1430 FILLER_0_37_305
*1431 FILLER_0_37_317
*1432 FILLER_0_37_329
*1433 FILLER_0_37_335
*1434 FILLER_0_37_337
*1435 FILLER_0_37_343
*1436 FILLER_0_37_39
*1437 FILLER_0_37_51
*1438 FILLER_0_37_55
*1439 FILLER_0_37_57
*1440 FILLER_0_37_69
*1441 FILLER_0_37_81
*1442 FILLER_0_37_89
*1443 FILLER_0_37_93
*1444 FILLER_0_38_102
*1445 FILLER_0_38_114
*1446 FILLER_0_38_126
*1447 FILLER_0_38_138
*1448 FILLER_0_38_141
*1449 FILLER_0_38_15
*1450 FILLER_0_38_153
*1451 FILLER_0_38_191
*1452 FILLER_0_38_195
*1453 FILLER_0_38_203
*1454 FILLER_0_38_227
*1455 FILLER_0_38_239
*1456 FILLER_0_38_262
*1457 FILLER_0_38_27
*1458 FILLER_0_38_274
*1459 FILLER_0_38_286
*1460 FILLER_0_38_29
*1461 FILLER_0_38_299
*1462 FILLER_0_38_3
*1463 FILLER_0_38_307
*1464 FILLER_0_38_309
*1465 FILLER_0_38_321
*1466 FILLER_0_38_333
*1467 FILLER_0_38_341
*1468 FILLER_0_38_41
*1469 FILLER_0_38_53
*1470 FILLER_0_38_61
*1471 FILLER_0_38_66
*1472 FILLER_0_38_76
*1473 FILLER_0_38_91
*1474 FILLER_0_39_110
*1475 FILLER_0_39_132
*1476 FILLER_0_39_144
*1477 FILLER_0_39_15
*1478 FILLER_0_39_156
*1479 FILLER_0_39_164
*1480 FILLER_0_39_193
*1481 FILLER_0_39_205
*1482 FILLER_0_39_217
*1483 FILLER_0_39_223
*1484 FILLER_0_39_225
*1485 FILLER_0_39_233
*1486 FILLER_0_39_27
*1487 FILLER_0_39_272
*1488 FILLER_0_39_281
*1489 FILLER_0_39_3
*1490 FILLER_0_39_316
*1491 FILLER_0_39_328
*1492 FILLER_0_39_337
*1493 FILLER_0_39_343
*1494 FILLER_0_39_39
*1495 FILLER_0_39_51
*1496 FILLER_0_39_55
*1497 FILLER_0_39_77
*1498 FILLER_0_3_105
*1499 FILLER_0_3_111
*1500 FILLER_0_3_113
*1501 FILLER_0_3_125
*1502 FILLER_0_3_137
*1503 FILLER_0_3_149
*1504 FILLER_0_3_15
*1505 FILLER_0_3_161
*1506 FILLER_0_3_167
*1507 FILLER_0_3_169
*1508 FILLER_0_3_181
*1509 FILLER_0_3_193
*1510 FILLER_0_3_205
*1511 FILLER_0_3_217
*1512 FILLER_0_3_223
*1513 FILLER_0_3_225
*1514 FILLER_0_3_237
*1515 FILLER_0_3_249
*1516 FILLER_0_3_261
*1517 FILLER_0_3_27
*1518 FILLER_0_3_273
*1519 FILLER_0_3_279
*1520 FILLER_0_3_281
*1521 FILLER_0_3_293
*1522 FILLER_0_3_3
*1523 FILLER_0_3_305
*1524 FILLER_0_3_317
*1525 FILLER_0_3_329
*1526 FILLER_0_3_335
*1527 FILLER_0_3_337
*1528 FILLER_0_3_343
*1529 FILLER_0_3_39
*1530 FILLER_0_3_51
*1531 FILLER_0_3_55
*1532 FILLER_0_3_57
*1533 FILLER_0_3_69
*1534 FILLER_0_3_81
*1535 FILLER_0_3_93
*1536 FILLER_0_40_100
*1537 FILLER_0_40_113
*1538 FILLER_0_40_141
*1539 FILLER_0_40_148
*1540 FILLER_0_40_15
*1541 FILLER_0_40_158
*1542 FILLER_0_40_166
*1543 FILLER_0_40_173
*1544 FILLER_0_40_185
*1545 FILLER_0_40_193
*1546 FILLER_0_40_197
*1547 FILLER_0_40_209
*1548 FILLER_0_40_221
*1549 FILLER_0_40_233
*1550 FILLER_0_40_241
*1551 FILLER_0_40_262
*1552 FILLER_0_40_27
*1553 FILLER_0_40_274
*1554 FILLER_0_40_280
*1555 FILLER_0_40_29
*1556 FILLER_0_40_3
*1557 FILLER_0_40_300
*1558 FILLER_0_40_309
*1559 FILLER_0_40_321
*1560 FILLER_0_40_333
*1561 FILLER_0_40_41
*1562 FILLER_0_40_53
*1563 FILLER_0_40_61
*1564 FILLER_0_41_109
*1565 FILLER_0_41_113
*1566 FILLER_0_41_117
*1567 FILLER_0_41_121
*1568 FILLER_0_41_129
*1569 FILLER_0_41_135
*1570 FILLER_0_41_139
*1571 FILLER_0_41_15
*1572 FILLER_0_41_160
*1573 FILLER_0_41_173
*1574 FILLER_0_41_185
*1575 FILLER_0_41_197
*1576 FILLER_0_41_209
*1577 FILLER_0_41_221
*1578 FILLER_0_41_225
*1579 FILLER_0_41_237
*1580 FILLER_0_41_261
*1581 FILLER_0_41_27
*1582 FILLER_0_41_273
*1583 FILLER_0_41_279
*1584 FILLER_0_41_281
*1585 FILLER_0_41_3
*1586 FILLER_0_41_303
*1587 FILLER_0_41_315
*1588 FILLER_0_41_327
*1589 FILLER_0_41_335
*1590 FILLER_0_41_337
*1591 FILLER_0_41_343
*1592 FILLER_0_41_39
*1593 FILLER_0_41_51
*1594 FILLER_0_41_55
*1595 FILLER_0_41_57
*1596 FILLER_0_41_69
*1597 FILLER_0_41_73
*1598 FILLER_0_41_85
*1599 FILLER_0_41_97
*1600 FILLER_0_42_109
*1601 FILLER_0_42_121
*1602 FILLER_0_42_133
*1603 FILLER_0_42_139
*1604 FILLER_0_42_141
*1605 FILLER_0_42_15
*1606 FILLER_0_42_153
*1607 FILLER_0_42_165
*1608 FILLER_0_42_177
*1609 FILLER_0_42_189
*1610 FILLER_0_42_195
*1611 FILLER_0_42_197
*1612 FILLER_0_42_209
*1613 FILLER_0_42_216
*1614 FILLER_0_42_228
*1615 FILLER_0_42_240
*1616 FILLER_0_42_253
*1617 FILLER_0_42_265
*1618 FILLER_0_42_27
*1619 FILLER_0_42_277
*1620 FILLER_0_42_285
*1621 FILLER_0_42_29
*1622 FILLER_0_42_290
*1623 FILLER_0_42_3
*1624 FILLER_0_42_302
*1625 FILLER_0_42_309
*1626 FILLER_0_42_321
*1627 FILLER_0_42_333
*1628 FILLER_0_42_341
*1629 FILLER_0_42_41
*1630 FILLER_0_42_53
*1631 FILLER_0_42_65
*1632 FILLER_0_42_77
*1633 FILLER_0_42_83
*1634 FILLER_0_42_85
*1635 FILLER_0_42_97
*1636 FILLER_0_43_105
*1637 FILLER_0_43_111
*1638 FILLER_0_43_113
*1639 FILLER_0_43_120
*1640 FILLER_0_43_126
*1641 FILLER_0_43_136
*1642 FILLER_0_43_148
*1643 FILLER_0_43_160
*1644 FILLER_0_43_169
*1645 FILLER_0_43_181
*1646 FILLER_0_43_193
*1647 FILLER_0_43_201
*1648 FILLER_0_43_21
*1649 FILLER_0_43_234
*1650 FILLER_0_43_246
*1651 FILLER_0_43_258
*1652 FILLER_0_43_270
*1653 FILLER_0_43_278
*1654 FILLER_0_43_290
*1655 FILLER_0_43_302
*1656 FILLER_0_43_314
*1657 FILLER_0_43_326
*1658 FILLER_0_43_33
*1659 FILLER_0_43_334
*1660 FILLER_0_43_337
*1661 FILLER_0_43_343
*1662 FILLER_0_43_45
*1663 FILLER_0_43_53
*1664 FILLER_0_43_57
*1665 FILLER_0_43_69
*1666 FILLER_0_43_81
*1667 FILLER_0_43_9
*1668 FILLER_0_43_93
*1669 FILLER_0_44_105
*1670 FILLER_0_44_119
*1671 FILLER_0_44_149
*1672 FILLER_0_44_15
*1673 FILLER_0_44_161
*1674 FILLER_0_44_167
*1675 FILLER_0_44_171
*1676 FILLER_0_44_192
*1677 FILLER_0_44_197
*1678 FILLER_0_44_207
*1679 FILLER_0_44_211
*1680 FILLER_0_44_240
*1681 FILLER_0_44_246
*1682 FILLER_0_44_251
*1683 FILLER_0_44_27
*1684 FILLER_0_44_270
*1685 FILLER_0_44_29
*1686 FILLER_0_44_299
*1687 FILLER_0_44_3
*1688 FILLER_0_44_307
*1689 FILLER_0_44_309
*1690 FILLER_0_44_321
*1691 FILLER_0_44_333
*1692 FILLER_0_44_341
*1693 FILLER_0_44_41
*1694 FILLER_0_44_53
*1695 FILLER_0_44_65
*1696 FILLER_0_44_77
*1697 FILLER_0_44_83
*1698 FILLER_0_45_106
*1699 FILLER_0_45_122
*1700 FILLER_0_45_142
*1701 FILLER_0_45_15
*1702 FILLER_0_45_154
*1703 FILLER_0_45_158
*1704 FILLER_0_45_169
*1705 FILLER_0_45_222
*1706 FILLER_0_45_234
*1707 FILLER_0_45_27
*1708 FILLER_0_45_278
*1709 FILLER_0_45_281
*1710 FILLER_0_45_293
*1711 FILLER_0_45_3
*1712 FILLER_0_45_305
*1713 FILLER_0_45_317
*1714 FILLER_0_45_329
*1715 FILLER_0_45_335
*1716 FILLER_0_45_337
*1717 FILLER_0_45_343
*1718 FILLER_0_45_39
*1719 FILLER_0_45_51
*1720 FILLER_0_45_55
*1721 FILLER_0_45_57
*1722 FILLER_0_45_69
*1723 FILLER_0_45_81
*1724 FILLER_0_46_113
*1725 FILLER_0_46_117
*1726 FILLER_0_46_138
*1727 FILLER_0_46_141
*1728 FILLER_0_46_15
*1729 FILLER_0_46_183
*1730 FILLER_0_46_195
*1731 FILLER_0_46_206
*1732 FILLER_0_46_210
*1733 FILLER_0_46_214
*1734 FILLER_0_46_226
*1735 FILLER_0_46_230
*1736 FILLER_0_46_239
*1737 FILLER_0_46_251
*1738 FILLER_0_46_27
*1739 FILLER_0_46_270
*1740 FILLER_0_46_282
*1741 FILLER_0_46_29
*1742 FILLER_0_46_294
*1743 FILLER_0_46_3
*1744 FILLER_0_46_306
*1745 FILLER_0_46_309
*1746 FILLER_0_46_321
*1747 FILLER_0_46_333
*1748 FILLER_0_46_341
*1749 FILLER_0_46_41
*1750 FILLER_0_46_53
*1751 FILLER_0_46_65
*1752 FILLER_0_46_77
*1753 FILLER_0_46_83
*1754 FILLER_0_46_85
*1755 FILLER_0_46_91
*1756 FILLER_0_46_95
*1757 FILLER_0_47_105
*1758 FILLER_0_47_111
*1759 FILLER_0_47_113
*1760 FILLER_0_47_121
*1761 FILLER_0_47_126
*1762 FILLER_0_47_138
*1763 FILLER_0_47_15
*1764 FILLER_0_47_150
*1765 FILLER_0_47_158
*1766 FILLER_0_47_164
*1767 FILLER_0_47_177
*1768 FILLER_0_47_189
*1769 FILLER_0_47_195
*1770 FILLER_0_47_204
*1771 FILLER_0_47_216
*1772 FILLER_0_47_225
*1773 FILLER_0_47_237
*1774 FILLER_0_47_249
*1775 FILLER_0_47_261
*1776 FILLER_0_47_27
*1777 FILLER_0_47_273
*1778 FILLER_0_47_279
*1779 FILLER_0_47_281
*1780 FILLER_0_47_293
*1781 FILLER_0_47_3
*1782 FILLER_0_47_305
*1783 FILLER_0_47_317
*1784 FILLER_0_47_329
*1785 FILLER_0_47_335
*1786 FILLER_0_47_337
*1787 FILLER_0_47_343
*1788 FILLER_0_47_39
*1789 FILLER_0_47_51
*1790 FILLER_0_47_55
*1791 FILLER_0_47_57
*1792 FILLER_0_47_69
*1793 FILLER_0_47_81
*1794 FILLER_0_47_93
*1795 FILLER_0_48_109
*1796 FILLER_0_48_121
*1797 FILLER_0_48_133
*1798 FILLER_0_48_139
*1799 FILLER_0_48_141
*1800 FILLER_0_48_15
*1801 FILLER_0_48_153
*1802 FILLER_0_48_165
*1803 FILLER_0_48_177
*1804 FILLER_0_48_189
*1805 FILLER_0_48_195
*1806 FILLER_0_48_197
*1807 FILLER_0_48_209
*1808 FILLER_0_48_221
*1809 FILLER_0_48_233
*1810 FILLER_0_48_245
*1811 FILLER_0_48_251
*1812 FILLER_0_48_253
*1813 FILLER_0_48_265
*1814 FILLER_0_48_27
*1815 FILLER_0_48_277
*1816 FILLER_0_48_289
*1817 FILLER_0_48_29
*1818 FILLER_0_48_3
*1819 FILLER_0_48_301
*1820 FILLER_0_48_307
*1821 FILLER_0_48_309
*1822 FILLER_0_48_321
*1823 FILLER_0_48_333
*1824 FILLER_0_48_341
*1825 FILLER_0_48_41
*1826 FILLER_0_48_53
*1827 FILLER_0_48_65
*1828 FILLER_0_48_77
*1829 FILLER_0_48_83
*1830 FILLER_0_48_85
*1831 FILLER_0_48_97
*1832 FILLER_0_49_105
*1833 FILLER_0_49_111
*1834 FILLER_0_49_113
*1835 FILLER_0_49_125
*1836 FILLER_0_49_137
*1837 FILLER_0_49_149
*1838 FILLER_0_49_15
*1839 FILLER_0_49_161
*1840 FILLER_0_49_167
*1841 FILLER_0_49_169
*1842 FILLER_0_49_181
*1843 FILLER_0_49_193
*1844 FILLER_0_49_205
*1845 FILLER_0_49_217
*1846 FILLER_0_49_223
*1847 FILLER_0_49_225
*1848 FILLER_0_49_237
*1849 FILLER_0_49_249
*1850 FILLER_0_49_261
*1851 FILLER_0_49_27
*1852 FILLER_0_49_273
*1853 FILLER_0_49_279
*1854 FILLER_0_49_281
*1855 FILLER_0_49_293
*1856 FILLER_0_49_3
*1857 FILLER_0_49_305
*1858 FILLER_0_49_317
*1859 FILLER_0_49_329
*1860 FILLER_0_49_335
*1861 FILLER_0_49_337
*1862 FILLER_0_49_343
*1863 FILLER_0_49_39
*1864 FILLER_0_49_51
*1865 FILLER_0_49_55
*1866 FILLER_0_49_57
*1867 FILLER_0_49_69
*1868 FILLER_0_49_81
*1869 FILLER_0_49_93
*1870 FILLER_0_4_109
*1871 FILLER_0_4_121
*1872 FILLER_0_4_133
*1873 FILLER_0_4_139
*1874 FILLER_0_4_141
*1875 FILLER_0_4_15
*1876 FILLER_0_4_153
*1877 FILLER_0_4_165
*1878 FILLER_0_4_177
*1879 FILLER_0_4_189
*1880 FILLER_0_4_195
*1881 FILLER_0_4_197
*1882 FILLER_0_4_209
*1883 FILLER_0_4_221
*1884 FILLER_0_4_233
*1885 FILLER_0_4_245
*1886 FILLER_0_4_251
*1887 FILLER_0_4_253
*1888 FILLER_0_4_265
*1889 FILLER_0_4_27
*1890 FILLER_0_4_277
*1891 FILLER_0_4_289
*1892 FILLER_0_4_29
*1893 FILLER_0_4_3
*1894 FILLER_0_4_301
*1895 FILLER_0_4_307
*1896 FILLER_0_4_309
*1897 FILLER_0_4_321
*1898 FILLER_0_4_333
*1899 FILLER_0_4_341
*1900 FILLER_0_4_41
*1901 FILLER_0_4_53
*1902 FILLER_0_4_65
*1903 FILLER_0_4_77
*1904 FILLER_0_4_83
*1905 FILLER_0_4_85
*1906 FILLER_0_4_97
*1907 FILLER_0_50_109
*1908 FILLER_0_50_121
*1909 FILLER_0_50_133
*1910 FILLER_0_50_139
*1911 FILLER_0_50_141
*1912 FILLER_0_50_15
*1913 FILLER_0_50_153
*1914 FILLER_0_50_165
*1915 FILLER_0_50_177
*1916 FILLER_0_50_189
*1917 FILLER_0_50_195
*1918 FILLER_0_50_197
*1919 FILLER_0_50_209
*1920 FILLER_0_50_221
*1921 FILLER_0_50_233
*1922 FILLER_0_50_245
*1923 FILLER_0_50_251
*1924 FILLER_0_50_253
*1925 FILLER_0_50_265
*1926 FILLER_0_50_27
*1927 FILLER_0_50_277
*1928 FILLER_0_50_289
*1929 FILLER_0_50_29
*1930 FILLER_0_50_3
*1931 FILLER_0_50_301
*1932 FILLER_0_50_307
*1933 FILLER_0_50_309
*1934 FILLER_0_50_321
*1935 FILLER_0_50_333
*1936 FILLER_0_50_41
*1937 FILLER_0_50_53
*1938 FILLER_0_50_65
*1939 FILLER_0_50_77
*1940 FILLER_0_50_83
*1941 FILLER_0_50_85
*1942 FILLER_0_50_97
*1943 FILLER_0_51_105
*1944 FILLER_0_51_111
*1945 FILLER_0_51_113
*1946 FILLER_0_51_125
*1947 FILLER_0_51_137
*1948 FILLER_0_51_149
*1949 FILLER_0_51_15
*1950 FILLER_0_51_161
*1951 FILLER_0_51_167
*1952 FILLER_0_51_169
*1953 FILLER_0_51_181
*1954 FILLER_0_51_193
*1955 FILLER_0_51_205
*1956 FILLER_0_51_217
*1957 FILLER_0_51_223
*1958 FILLER_0_51_225
*1959 FILLER_0_51_237
*1960 FILLER_0_51_249
*1961 FILLER_0_51_261
*1962 FILLER_0_51_27
*1963 FILLER_0_51_273
*1964 FILLER_0_51_279
*1965 FILLER_0_51_281
*1966 FILLER_0_51_293
*1967 FILLER_0_51_3
*1968 FILLER_0_51_305
*1969 FILLER_0_51_317
*1970 FILLER_0_51_329
*1971 FILLER_0_51_335
*1972 FILLER_0_51_337
*1973 FILLER_0_51_343
*1974 FILLER_0_51_39
*1975 FILLER_0_51_51
*1976 FILLER_0_51_55
*1977 FILLER_0_51_57
*1978 FILLER_0_51_69
*1979 FILLER_0_51_81
*1980 FILLER_0_51_93
*1981 FILLER_0_52_109
*1982 FILLER_0_52_121
*1983 FILLER_0_52_133
*1984 FILLER_0_52_139
*1985 FILLER_0_52_141
*1986 FILLER_0_52_15
*1987 FILLER_0_52_153
*1988 FILLER_0_52_165
*1989 FILLER_0_52_177
*1990 FILLER_0_52_189
*1991 FILLER_0_52_195
*1992 FILLER_0_52_197
*1993 FILLER_0_52_209
*1994 FILLER_0_52_221
*1995 FILLER_0_52_233
*1996 FILLER_0_52_245
*1997 FILLER_0_52_251
*1998 FILLER_0_52_253
*1999 FILLER_0_52_265
*2000 FILLER_0_52_27
*2001 FILLER_0_52_277
*2002 FILLER_0_52_289
*2003 FILLER_0_52_29
*2004 FILLER_0_52_3
*2005 FILLER_0_52_301
*2006 FILLER_0_52_307
*2007 FILLER_0_52_309
*2008 FILLER_0_52_321
*2009 FILLER_0_52_333
*2010 FILLER_0_52_341
*2011 FILLER_0_52_41
*2012 FILLER_0_52_53
*2013 FILLER_0_52_65
*2014 FILLER_0_52_77
*2015 FILLER_0_52_83
*2016 FILLER_0_52_85
*2017 FILLER_0_52_97
*2018 FILLER_0_53_105
*2019 FILLER_0_53_111
*2020 FILLER_0_53_113
*2021 FILLER_0_53_125
*2022 FILLER_0_53_137
*2023 FILLER_0_53_149
*2024 FILLER_0_53_15
*2025 FILLER_0_53_161
*2026 FILLER_0_53_167
*2027 FILLER_0_53_169
*2028 FILLER_0_53_181
*2029 FILLER_0_53_193
*2030 FILLER_0_53_205
*2031 FILLER_0_53_217
*2032 FILLER_0_53_223
*2033 FILLER_0_53_225
*2034 FILLER_0_53_237
*2035 FILLER_0_53_249
*2036 FILLER_0_53_261
*2037 FILLER_0_53_27
*2038 FILLER_0_53_273
*2039 FILLER_0_53_279
*2040 FILLER_0_53_281
*2041 FILLER_0_53_293
*2042 FILLER_0_53_3
*2043 FILLER_0_53_305
*2044 FILLER_0_53_317
*2045 FILLER_0_53_329
*2046 FILLER_0_53_335
*2047 FILLER_0_53_337
*2048 FILLER_0_53_343
*2049 FILLER_0_53_39
*2050 FILLER_0_53_51
*2051 FILLER_0_53_55
*2052 FILLER_0_53_57
*2053 FILLER_0_53_69
*2054 FILLER_0_53_81
*2055 FILLER_0_53_93
*2056 FILLER_0_54_109
*2057 FILLER_0_54_121
*2058 FILLER_0_54_133
*2059 FILLER_0_54_139
*2060 FILLER_0_54_141
*2061 FILLER_0_54_15
*2062 FILLER_0_54_153
*2063 FILLER_0_54_165
*2064 FILLER_0_54_177
*2065 FILLER_0_54_189
*2066 FILLER_0_54_195
*2067 FILLER_0_54_197
*2068 FILLER_0_54_209
*2069 FILLER_0_54_221
*2070 FILLER_0_54_233
*2071 FILLER_0_54_245
*2072 FILLER_0_54_251
*2073 FILLER_0_54_253
*2074 FILLER_0_54_265
*2075 FILLER_0_54_27
*2076 FILLER_0_54_277
*2077 FILLER_0_54_289
*2078 FILLER_0_54_29
*2079 FILLER_0_54_3
*2080 FILLER_0_54_301
*2081 FILLER_0_54_307
*2082 FILLER_0_54_309
*2083 FILLER_0_54_321
*2084 FILLER_0_54_333
*2085 FILLER_0_54_341
*2086 FILLER_0_54_41
*2087 FILLER_0_54_53
*2088 FILLER_0_54_65
*2089 FILLER_0_54_77
*2090 FILLER_0_54_83
*2091 FILLER_0_54_85
*2092 FILLER_0_54_97
*2093 FILLER_0_55_105
*2094 FILLER_0_55_111
*2095 FILLER_0_55_113
*2096 FILLER_0_55_125
*2097 FILLER_0_55_137
*2098 FILLER_0_55_149
*2099 FILLER_0_55_161
*2100 FILLER_0_55_167
*2101 FILLER_0_55_169
*2102 FILLER_0_55_181
*2103 FILLER_0_55_19
*2104 FILLER_0_55_193
*2105 FILLER_0_55_205
*2106 FILLER_0_55_217
*2107 FILLER_0_55_223
*2108 FILLER_0_55_225
*2109 FILLER_0_55_237
*2110 FILLER_0_55_249
*2111 FILLER_0_55_261
*2112 FILLER_0_55_273
*2113 FILLER_0_55_279
*2114 FILLER_0_55_281
*2115 FILLER_0_55_293
*2116 FILLER_0_55_305
*2117 FILLER_0_55_31
*2118 FILLER_0_55_317
*2119 FILLER_0_55_329
*2120 FILLER_0_55_335
*2121 FILLER_0_55_337
*2122 FILLER_0_55_343
*2123 FILLER_0_55_43
*2124 FILLER_0_55_55
*2125 FILLER_0_55_57
*2126 FILLER_0_55_69
*2127 FILLER_0_55_7
*2128 FILLER_0_55_81
*2129 FILLER_0_55_93
*2130 FILLER_0_56_109
*2131 FILLER_0_56_121
*2132 FILLER_0_56_133
*2133 FILLER_0_56_139
*2134 FILLER_0_56_141
*2135 FILLER_0_56_15
*2136 FILLER_0_56_153
*2137 FILLER_0_56_165
*2138 FILLER_0_56_177
*2139 FILLER_0_56_189
*2140 FILLER_0_56_195
*2141 FILLER_0_56_197
*2142 FILLER_0_56_209
*2143 FILLER_0_56_221
*2144 FILLER_0_56_233
*2145 FILLER_0_56_245
*2146 FILLER_0_56_251
*2147 FILLER_0_56_253
*2148 FILLER_0_56_265
*2149 FILLER_0_56_27
*2150 FILLER_0_56_277
*2151 FILLER_0_56_289
*2152 FILLER_0_56_29
*2153 FILLER_0_56_3
*2154 FILLER_0_56_301
*2155 FILLER_0_56_307
*2156 FILLER_0_56_309
*2157 FILLER_0_56_321
*2158 FILLER_0_56_333
*2159 FILLER_0_56_339
*2160 FILLER_0_56_41
*2161 FILLER_0_56_53
*2162 FILLER_0_56_65
*2163 FILLER_0_56_77
*2164 FILLER_0_56_83
*2165 FILLER_0_56_85
*2166 FILLER_0_56_97
*2167 FILLER_0_57_109
*2168 FILLER_0_57_113
*2169 FILLER_0_57_13
*2170 FILLER_0_57_135
*2171 FILLER_0_57_139
*2172 FILLER_0_57_141
*2173 FILLER_0_57_153
*2174 FILLER_0_57_165
*2175 FILLER_0_57_169
*2176 FILLER_0_57_187
*2177 FILLER_0_57_195
*2178 FILLER_0_57_197
*2179 FILLER_0_57_209
*2180 FILLER_0_57_221
*2181 FILLER_0_57_225
*2182 FILLER_0_57_237
*2183 FILLER_0_57_243
*2184 FILLER_0_57_248
*2185 FILLER_0_57_25
*2186 FILLER_0_57_253
*2187 FILLER_0_57_265
*2188 FILLER_0_57_277
*2189 FILLER_0_57_281
*2190 FILLER_0_57_29
*2191 FILLER_0_57_293
*2192 FILLER_0_57_299
*2193 FILLER_0_57_304
*2194 FILLER_0_57_309
*2195 FILLER_0_57_321
*2196 FILLER_0_57_329
*2197 FILLER_0_57_337
*2198 FILLER_0_57_343
*2199 FILLER_0_57_41
*2200 FILLER_0_57_53
*2201 FILLER_0_57_57
*2202 FILLER_0_57_73
*2203 FILLER_0_57_81
*2204 FILLER_0_57_85
*2205 FILLER_0_57_97
*2206 FILLER_0_5_105
*2207 FILLER_0_5_111
*2208 FILLER_0_5_113
*2209 FILLER_0_5_125
*2210 FILLER_0_5_137
*2211 FILLER_0_5_149
*2212 FILLER_0_5_15
*2213 FILLER_0_5_161
*2214 FILLER_0_5_167
*2215 FILLER_0_5_169
*2216 FILLER_0_5_181
*2217 FILLER_0_5_193
*2218 FILLER_0_5_205
*2219 FILLER_0_5_217
*2220 FILLER_0_5_223
*2221 FILLER_0_5_225
*2222 FILLER_0_5_237
*2223 FILLER_0_5_249
*2224 FILLER_0_5_261
*2225 FILLER_0_5_27
*2226 FILLER_0_5_273
*2227 FILLER_0_5_279
*2228 FILLER_0_5_281
*2229 FILLER_0_5_293
*2230 FILLER_0_5_3
*2231 FILLER_0_5_305
*2232 FILLER_0_5_317
*2233 FILLER_0_5_329
*2234 FILLER_0_5_335
*2235 FILLER_0_5_337
*2236 FILLER_0_5_343
*2237 FILLER_0_5_39
*2238 FILLER_0_5_51
*2239 FILLER_0_5_55
*2240 FILLER_0_5_57
*2241 FILLER_0_5_69
*2242 FILLER_0_5_81
*2243 FILLER_0_5_93
*2244 FILLER_0_6_109
*2245 FILLER_0_6_121
*2246 FILLER_0_6_133
*2247 FILLER_0_6_139
*2248 FILLER_0_6_141
*2249 FILLER_0_6_15
*2250 FILLER_0_6_153
*2251 FILLER_0_6_165
*2252 FILLER_0_6_177
*2253 FILLER_0_6_189
*2254 FILLER_0_6_195
*2255 FILLER_0_6_197
*2256 FILLER_0_6_209
*2257 FILLER_0_6_221
*2258 FILLER_0_6_233
*2259 FILLER_0_6_245
*2260 FILLER_0_6_251
*2261 FILLER_0_6_253
*2262 FILLER_0_6_265
*2263 FILLER_0_6_27
*2264 FILLER_0_6_277
*2265 FILLER_0_6_289
*2266 FILLER_0_6_29
*2267 FILLER_0_6_3
*2268 FILLER_0_6_301
*2269 FILLER_0_6_307
*2270 FILLER_0_6_309
*2271 FILLER_0_6_321
*2272 FILLER_0_6_333
*2273 FILLER_0_6_341
*2274 FILLER_0_6_41
*2275 FILLER_0_6_53
*2276 FILLER_0_6_65
*2277 FILLER_0_6_77
*2278 FILLER_0_6_83
*2279 FILLER_0_6_85
*2280 FILLER_0_6_97
*2281 FILLER_0_7_105
*2282 FILLER_0_7_111
*2283 FILLER_0_7_113
*2284 FILLER_0_7_125
*2285 FILLER_0_7_137
*2286 FILLER_0_7_149
*2287 FILLER_0_7_15
*2288 FILLER_0_7_161
*2289 FILLER_0_7_167
*2290 FILLER_0_7_169
*2291 FILLER_0_7_181
*2292 FILLER_0_7_193
*2293 FILLER_0_7_205
*2294 FILLER_0_7_217
*2295 FILLER_0_7_223
*2296 FILLER_0_7_225
*2297 FILLER_0_7_237
*2298 FILLER_0_7_249
*2299 FILLER_0_7_261
*2300 FILLER_0_7_27
*2301 FILLER_0_7_273
*2302 FILLER_0_7_279
*2303 FILLER_0_7_281
*2304 FILLER_0_7_293
*2305 FILLER_0_7_3
*2306 FILLER_0_7_305
*2307 FILLER_0_7_317
*2308 FILLER_0_7_329
*2309 FILLER_0_7_335
*2310 FILLER_0_7_337
*2311 FILLER_0_7_343
*2312 FILLER_0_7_39
*2313 FILLER_0_7_51
*2314 FILLER_0_7_55
*2315 FILLER_0_7_57
*2316 FILLER_0_7_69
*2317 FILLER_0_7_81
*2318 FILLER_0_7_93
*2319 FILLER_0_8_109
*2320 FILLER_0_8_121
*2321 FILLER_0_8_133
*2322 FILLER_0_8_139
*2323 FILLER_0_8_141
*2324 FILLER_0_8_15
*2325 FILLER_0_8_153
*2326 FILLER_0_8_165
*2327 FILLER_0_8_177
*2328 FILLER_0_8_189
*2329 FILLER_0_8_195
*2330 FILLER_0_8_197
*2331 FILLER_0_8_209
*2332 FILLER_0_8_221
*2333 FILLER_0_8_233
*2334 FILLER_0_8_245
*2335 FILLER_0_8_251
*2336 FILLER_0_8_253
*2337 FILLER_0_8_265
*2338 FILLER_0_8_27
*2339 FILLER_0_8_277
*2340 FILLER_0_8_289
*2341 FILLER_0_8_29
*2342 FILLER_0_8_3
*2343 FILLER_0_8_301
*2344 FILLER_0_8_307
*2345 FILLER_0_8_309
*2346 FILLER_0_8_321
*2347 FILLER_0_8_333
*2348 FILLER_0_8_41
*2349 FILLER_0_8_53
*2350 FILLER_0_8_65
*2351 FILLER_0_8_77
*2352 FILLER_0_8_83
*2353 FILLER_0_8_85
*2354 FILLER_0_8_97
*2355 FILLER_0_9_105
*2356 FILLER_0_9_111
*2357 FILLER_0_9_113
*2358 FILLER_0_9_125
*2359 FILLER_0_9_137
*2360 FILLER_0_9_149
*2361 FILLER_0_9_15
*2362 FILLER_0_9_161
*2363 FILLER_0_9_167
*2364 FILLER_0_9_169
*2365 FILLER_0_9_181
*2366 FILLER_0_9_193
*2367 FILLER_0_9_205
*2368 FILLER_0_9_217
*2369 FILLER_0_9_223
*2370 FILLER_0_9_225
*2371 FILLER_0_9_237
*2372 FILLER_0_9_249
*2373 FILLER_0_9_261
*2374 FILLER_0_9_27
*2375 FILLER_0_9_273
*2376 FILLER_0_9_279
*2377 FILLER_0_9_281
*2378 FILLER_0_9_293
*2379 FILLER_0_9_3
*2380 FILLER_0_9_305
*2381 FILLER_0_9_317
*2382 FILLER_0_9_329
*2383 FILLER_0_9_335
*2384 FILLER_0_9_337
*2385 FILLER_0_9_343
*2386 FILLER_0_9_39
*2387 FILLER_0_9_51
*2388 FILLER_0_9_55
*2389 FILLER_0_9_57
*2390 FILLER_0_9_69
*2391 FILLER_0_9_81
*2392 FILLER_0_9_93
*2393 PHY_0
*2394 PHY_1
*2395 PHY_10
*2396 PHY_100
*2397 PHY_101
*2398 PHY_102
*2399 PHY_103
*2400 PHY_104
*2401 PHY_105
*2402 PHY_106
*2403 PHY_107
*2404 PHY_108
*2405 PHY_109
*2406 PHY_11
*2407 PHY_110
*2408 PHY_111
*2409 PHY_112
*2410 PHY_113
*2411 PHY_114
*2412 PHY_115
*2413 PHY_12
*2414 PHY_13
*2415 PHY_14
*2416 PHY_15
*2417 PHY_16
*2418 PHY_17
*2419 PHY_18
*2420 PHY_19
*2421 PHY_2
*2422 PHY_20
*2423 PHY_21
*2424 PHY_22
*2425 PHY_23
*2426 PHY_24
*2427 PHY_25
*2428 PHY_26
*2429 PHY_27
*2430 PHY_28
*2431 PHY_29
*2432 PHY_3
*2433 PHY_30
*2434 PHY_31
*2435 PHY_32
*2436 PHY_33
*2437 PHY_34
*2438 PHY_35
*2439 PHY_36
*2440 PHY_37
*2441 PHY_38
*2442 PHY_39
*2443 PHY_4
*2444 PHY_40
*2445 PHY_41
*2446 PHY_42
*2447 PHY_43
*2448 PHY_44
*2449 PHY_45
*2450 PHY_46
*2451 PHY_47
*2452 PHY_48
*2453 PHY_49
*2454 PHY_5
*2455 PHY_50
*2456 PHY_51
*2457 PHY_52
*2458 PHY_53
*2459 PHY_54
*2460 PHY_55
*2461 PHY_56
*2462 PHY_57
*2463 PHY_58
*2464 PHY_59
*2465 PHY_6
*2466 PHY_60
*2467 PHY_61
*2468 PHY_62
*2469 PHY_63
*2470 PHY_64
*2471 PHY_65
*2472 PHY_66
*2473 PHY_67
*2474 PHY_68
*2475 PHY_69
*2476 PHY_7
*2477 PHY_70
*2478 PHY_71
*2479 PHY_72
*2480 PHY_73
*2481 PHY_74
*2482 PHY_75
*2483 PHY_76
*2484 PHY_77
*2485 PHY_78
*2486 PHY_79
*2487 PHY_8
*2488 PHY_80
*2489 PHY_81
*2490 PHY_82
*2491 PHY_83
*2492 PHY_84
*2493 PHY_85
*2494 PHY_86
*2495 PHY_87
*2496 PHY_88
*2497 PHY_89
*2498 PHY_9
*2499 PHY_90
*2500 PHY_91
*2501 PHY_92
*2502 PHY_93
*2503 PHY_94
*2504 PHY_95
*2505 PHY_96
*2506 PHY_97
*2507 PHY_98
*2508 PHY_99
*2509 TAP_116
*2510 TAP_117
*2511 TAP_118
*2512 TAP_119
*2513 TAP_120
*2514 TAP_121
*2515 TAP_122
*2516 TAP_123
*2517 TAP_124
*2518 TAP_125
*2519 TAP_126
*2520 TAP_127
*2521 TAP_128
*2522 TAP_129
*2523 TAP_130
*2524 TAP_131
*2525 TAP_132
*2526 TAP_133
*2527 TAP_134
*2528 TAP_135
*2529 TAP_136
*2530 TAP_137
*2531 TAP_138
*2532 TAP_139
*2533 TAP_140
*2534 TAP_141
*2535 TAP_142
*2536 TAP_143
*2537 TAP_144
*2538 TAP_145
*2539 TAP_146
*2540 TAP_147
*2541 TAP_148
*2542 TAP_149
*2543 TAP_150
*2544 TAP_151
*2545 TAP_152
*2546 TAP_153
*2547 TAP_154
*2548 TAP_155
*2549 TAP_156
*2550 TAP_157
*2551 TAP_158
*2552 TAP_159
*2553 TAP_160
*2554 TAP_161
*2555 TAP_162
*2556 TAP_163
*2557 TAP_164
*2558 TAP_165
*2559 TAP_166
*2560 TAP_167
*2561 TAP_168
*2562 TAP_169
*2563 TAP_170
*2564 TAP_171
*2565 TAP_172
*2566 TAP_173
*2567 TAP_174
*2568 TAP_175
*2569 TAP_176
*2570 TAP_177
*2571 TAP_178
*2572 TAP_179
*2573 TAP_180
*2574 TAP_181
*2575 TAP_182
*2576 TAP_183
*2577 TAP_184
*2578 TAP_185
*2579 TAP_186
*2580 TAP_187
*2581 TAP_188
*2582 TAP_189
*2583 TAP_190
*2584 TAP_191
*2585 TAP_192
*2586 TAP_193
*2587 TAP_194
*2588 TAP_195
*2589 TAP_196
*2590 TAP_197
*2591 TAP_198
*2592 TAP_199
*2593 TAP_200
*2594 TAP_201
*2595 TAP_202
*2596 TAP_203
*2597 TAP_204
*2598 TAP_205
*2599 TAP_206
*2600 TAP_207
*2601 TAP_208
*2602 TAP_209
*2603 TAP_210
*2604 TAP_211
*2605 TAP_212
*2606 TAP_213
*2607 TAP_214
*2608 TAP_215
*2609 TAP_216
*2610 TAP_217
*2611 TAP_218
*2612 TAP_219
*2613 TAP_220
*2614 TAP_221
*2615 TAP_222
*2616 TAP_223
*2617 TAP_224
*2618 TAP_225
*2619 TAP_226
*2620 TAP_227
*2621 TAP_228
*2622 TAP_229
*2623 TAP_230
*2624 TAP_231
*2625 TAP_232
*2626 TAP_233
*2627 TAP_234
*2628 TAP_235
*2629 TAP_236
*2630 TAP_237
*2631 TAP_238
*2632 TAP_239
*2633 TAP_240
*2634 TAP_241
*2635 TAP_242
*2636 TAP_243
*2637 TAP_244
*2638 TAP_245
*2639 TAP_246
*2640 TAP_247
*2641 TAP_248
*2642 TAP_249
*2643 TAP_250
*2644 TAP_251
*2645 TAP_252
*2646 TAP_253
*2647 TAP_254
*2648 TAP_255
*2649 TAP_256
*2650 TAP_257
*2651 TAP_258
*2652 TAP_259
*2653 TAP_260
*2654 TAP_261
*2655 TAP_262
*2656 TAP_263
*2657 TAP_264
*2658 TAP_265
*2659 TAP_266
*2660 TAP_267
*2661 TAP_268
*2662 TAP_269
*2663 TAP_270
*2664 TAP_271
*2665 TAP_272
*2666 TAP_273
*2667 TAP_274
*2668 TAP_275
*2669 TAP_276
*2670 TAP_277
*2671 TAP_278
*2672 TAP_279
*2673 TAP_280
*2674 TAP_281
*2675 TAP_282
*2676 TAP_283
*2677 TAP_284
*2678 TAP_285
*2679 TAP_286
*2680 TAP_287
*2681 TAP_288
*2682 TAP_289
*2683 TAP_290
*2684 TAP_291
*2685 TAP_292
*2686 TAP_293
*2687 TAP_294
*2688 TAP_295
*2689 TAP_296
*2690 TAP_297
*2691 TAP_298
*2692 TAP_299
*2693 TAP_300
*2694 TAP_301
*2695 TAP_302
*2696 TAP_303
*2697 TAP_304
*2698 TAP_305
*2699 TAP_306
*2700 TAP_307
*2701 TAP_308
*2702 TAP_309
*2703 TAP_310
*2704 TAP_311
*2705 TAP_312
*2706 TAP_313
*2707 TAP_314
*2708 TAP_315
*2709 TAP_316
*2710 TAP_317
*2711 TAP_318
*2712 TAP_319
*2713 TAP_320
*2714 TAP_321
*2715 TAP_322
*2716 TAP_323
*2717 TAP_324
*2718 TAP_325
*2719 TAP_326
*2720 TAP_327
*2721 TAP_328
*2722 TAP_329
*2723 TAP_330
*2724 TAP_331
*2725 TAP_332
*2726 TAP_333
*2727 TAP_334
*2728 TAP_335
*2729 TAP_336
*2730 TAP_337
*2731 TAP_338
*2732 TAP_339
*2733 TAP_340
*2734 TAP_341
*2735 TAP_342
*2736 TAP_343
*2737 TAP_344
*2738 TAP_345
*2739 TAP_346
*2740 TAP_347
*2741 TAP_348
*2742 TAP_349
*2743 TAP_350
*2744 TAP_351
*2745 TAP_352
*2746 TAP_353
*2747 TAP_354
*2748 TAP_355
*2749 TAP_356
*2750 TAP_357
*2751 TAP_358
*2752 TAP_359
*2753 TAP_360
*2754 TAP_361
*2755 TAP_362
*2756 TAP_363
*2757 TAP_364
*2758 TAP_365
*2759 TAP_366
*2760 TAP_367
*2761 TAP_368
*2762 TAP_369
*2763 TAP_370
*2764 TAP_371
*2765 TAP_372
*2766 TAP_373
*2767 TAP_374
*2768 TAP_375
*2769 TAP_376
*2770 TAP_377
*2771 TAP_378
*2772 TAP_379
*2773 TAP_380
*2774 TAP_381
*2775 TAP_382
*2776 TAP_383
*2777 TAP_384
*2778 TAP_385
*2779 TAP_386
*2780 TAP_387
*2781 TAP_388
*2782 TAP_389
*2783 TAP_390
*2784 TAP_391
*2785 TAP_392
*2786 TAP_393
*2787 TAP_394
*2788 TAP_395
*2789 TAP_396
*2790 TAP_397
*2791 TAP_398
*2792 TAP_399
*2793 TAP_400
*2794 TAP_401
*2795 TAP_402
*2796 TAP_403
*2797 TAP_404
*2798 TAP_405
*2799 TAP_406
*2800 TAP_407
*2801 TAP_408
*2802 TAP_409
*2803 TAP_410
*2804 TAP_411
*2805 TAP_412
*2806 TAP_413
*2807 TAP_414
*2808 TAP_415
*2809 TAP_416
*2810 TAP_417
*2811 TAP_418
*2812 TAP_419
*2813 TAP_420
*2814 TAP_421
*2815 TAP_422
*2816 TAP_423
*2817 TAP_424
*2818 TAP_425
*2819 TAP_426
*2820 TAP_427
*2821 TAP_428
*2822 TAP_429
*2823 TAP_430
*2824 TAP_431
*2825 TAP_432
*2826 TAP_433
*2827 TAP_434
*2828 TAP_435
*2829 TAP_436
*2830 TAP_437
*2831 TAP_438
*2832 TAP_439
*2833 TAP_440
*2834 TAP_441
*2835 TAP_442
*2836 TAP_443
*2837 TAP_444
*2838 TAP_445
*2839 TAP_446
*2840 TAP_447
*2841 TAP_448
*2842 TAP_449
*2843 TAP_450
*2844 TAP_451
*2845 TAP_452
*2846 TAP_453
*2847 TAP_454
*2848 TAP_455
*2849 TAP_456
*2850 TAP_457
*2851 TAP_458
*2852 TAP_459
*2853 TAP_460
*2854 TAP_461
*2855 TAP_462
*2856 TAP_463
*2857 TAP_464
*2858 TAP_465
*2859 TAP_466
*2860 TAP_467
*2861 TAP_468
*2862 TAP_469
*2863 TAP_470
*2864 TAP_471
*2865 TAP_472
*2866 TAP_473
*2867 TAP_474
*2868 TAP_475
*2869 _241_
*2870 _242_
*2871 _243_
*2872 _244_
*2873 _245_
*2874 _246_
*2875 _247_
*2876 _248_
*2877 _249_
*2878 _250_
*2879 _251_
*2880 _252_
*2881 _253_
*2882 _254_
*2883 _255_
*2884 _256_
*2885 _257_
*2886 _258_
*2887 _259_
*2888 _260_
*2889 _261_
*2890 _262_
*2891 _263_
*2892 _264_
*2893 _265_
*2894 _266_
*2895 _267_
*2896 _268_
*2897 _269_
*2898 _270_
*2899 _271_
*2900 _272_
*2901 _273_
*2902 _274_
*2903 _275_
*2904 _276_
*2905 _277_
*2906 _278_
*2907 _279_
*2908 _280_
*2909 _281_
*2910 _282_
*2911 _283_
*2912 _284_
*2913 _285_
*2914 _286_
*2915 _287_
*2916 _288_
*2917 _289_
*2918 _290_
*2919 _291_
*2920 _292_
*2921 _293_
*2922 _294_
*2923 _295_
*2924 _296_
*2925 _297_
*2926 _298_
*2927 _299_
*2928 _300_
*2929 _301_
*2930 _302_
*2931 _303_
*2932 _304_
*2933 _305_
*2934 _306_
*2935 _307_
*2936 _308_
*2937 _309_
*2938 _310_
*2939 _311_
*2940 _312_
*2941 _313_
*2942 _314_
*2943 _315_
*2944 _316_
*2945 _317_
*2946 _318_
*2947 _319_
*2948 _320_
*2949 _321_
*2950 _322_
*2951 _323_
*2952 _324_
*2953 _325_
*2954 _326_
*2955 _327_
*2956 _328_
*2957 _329_
*2958 _330_
*2959 _331_
*2960 _332_
*2961 _333_
*2962 _334_
*2963 _335_
*2964 _336_
*2965 _337_
*2966 _338_
*2967 _339_
*2968 _340_
*2969 _341_
*2970 _342_
*2971 _343_
*2972 _344_
*2973 _345_
*2974 _346_
*2975 _347_
*2976 _348_
*2977 _349_
*2978 _350_
*2979 _351_
*2980 _352_
*2981 _353_
*2982 _354_
*2983 _355_
*2984 _356_
*2985 _357_
*2986 _358_
*2987 _359_
*2988 _360_
*2989 _361_
*2990 _362_
*2991 _363_
*2992 _364_
*2993 _365_
*2994 _366_
*2995 _367_
*2996 _368_
*2997 _369_
*2998 _370_
*2999 _371_
*3000 _372_
*3001 _373_
*3002 _374_
*3003 _375_
*3004 _376_
*3005 _377_
*3006 _378_
*3007 _379_
*3008 _380_
*3009 _381_
*3010 _382_
*3011 _383_
*3012 _384_
*3013 _385_
*3014 _386_
*3015 _387_
*3016 _388_
*3017 _389_
*3018 _390_
*3019 _391_
*3020 _392_
*3021 _393_
*3022 _394_
*3023 _395_
*3024 _396_
*3025 _397_
*3026 _398_
*3027 _399_
*3028 _400_
*3029 _401_
*3030 _402_
*3031 _403_
*3032 _404_
*3033 _405_
*3034 _406_
*3035 _407_
*3036 _408_
*3037 _409_
*3038 _410_
*3039 _411_
*3040 _412_
*3041 _413_
*3042 _414_
*3043 _415_
*3044 _416_
*3045 _417_
*3046 _418_
*3047 _419_
*3048 _420_
*3049 _421_
*3050 _422_
*3051 _423_
*3052 _424_
*3053 _425_
*3054 _426_
*3055 _427_
*3056 _428_
*3057 _429_
*3058 _430_
*3059 _431_
*3060 _432_
*3061 _433_
*3062 _434_
*3063 _435_
*3064 _436_
*3065 _437_
*3066 _438_
*3067 _439_
*3068 _440_
*3069 _441_
*3070 _442_
*3071 _443_
*3072 _444_
*3073 _445_
*3074 _446_
*3075 _447_
*3076 _448_
*3077 _449_
*3078 _450_
*3079 _451_
*3080 _452_
*3081 _453_
*3082 _454_
*3083 _455_
*3084 _456_
*3085 _457_
*3086 _458_
*3087 _459_
*3088 _460_
*3089 _461_
*3090 _462_
*3091 _463_
*3092 _464_
*3093 _465_
*3094 _466_
*3095 _467_
*3096 _468_
*3097 _469_
*3098 _470_
*3099 _471_
*3100 _472_
*3101 _473_
*3102 _474_
*3103 _475_
*3104 _476_
*3105 _477_
*3106 _478_
*3107 _479_
*3108 _480_
*3109 _481_
*3110 _482_
*3111 _483_
*3112 _484_
*3113 _485_
*3114 _486_
*3115 _487_
*3116 _488_
*3117 _489_
*3118 _490_
*3119 _491_
*3120 _492_
*3121 _493_
*3122 _494_
*3123 _495_
*3124 _496_
*3125 _497_
*3126 _498_
*3127 _499_
*3128 _500_
*3129 _501_
*3130 _502_
*3131 _503_
*3132 _504_
*3133 _505_
*3134 _506_
*3135 _507_
*3136 _508_
*3137 _509_
*3138 _510_
*3139 _511_
*3140 _512_
*3141 _513_
*3142 _514_
*3143 _515_
*3144 _516_
*3145 _517_
*3146 _518_
*3147 _519_
*3148 _520_
*3149 _521_
*3150 _522_
*3151 _523_
*3152 _524_
*3153 _525_
*3154 _526_
*3155 _527_
*3156 _528_
*3157 _529_
*3158 _530_
*3159 _531_
*3160 _532_
*3161 _533_
*3162 _534_
*3163 _535_
*3164 _536_
*3165 _537_
*3166 _538_
*3167 _539_
*3168 _540_
*3169 _541_
*3170 _542_
*3171 _543_
*3172 _544_
*3173 _545_
*3174 _546_
*3175 _547_
*3176 _548_
*3177 _549_
*3178 _550_
*3179 _551_
*3180 _552_
*3181 _553_
*3182 _554_
*3183 _555_
*3184 _556_
*3185 _557_
*3186 _558_
*3187 _559_
*3188 _560_
*3189 _561_
*3190 _562_
*3191 clkbuf_0_clk
*3192 clkbuf_3_0__f_clk
*3193 clkbuf_3_1__f_clk
*3194 clkbuf_3_2__f_clk
*3195 clkbuf_3_3__f_clk
*3196 clkbuf_3_4__f_clk
*3197 clkbuf_3_5__f_clk
*3198 clkbuf_3_6__f_clk
*3199 clkbuf_3_7__f_clk
*3200 fanout29
*3201 fanout30
*3202 fanout31
*3203 fanout32
*3204 fanout33
*3205 fanout34
*3206 fanout35
*3207 fanout36
*3208 fanout37
*3209 hold1
*3210 hold10
*3211 hold11
*3212 hold12
*3213 hold13
*3214 hold14
*3215 hold15
*3216 hold16
*3217 hold17
*3218 hold18
*3219 hold19
*3220 hold2
*3221 hold20
*3222 hold21
*3223 hold22
*3224 hold23
*3225 hold24
*3226 hold25
*3227 hold26
*3228 hold27
*3229 hold28
*3230 hold29
*3231 hold3
*3232 hold30
*3233 hold31
*3234 hold32
*3235 hold33
*3236 hold34
*3237 hold35
*3238 hold36
*3239 hold4
*3240 hold5
*3241 hold6
*3242 hold7
*3243 hold8
*3244 hold9
*3245 input1
*3246 input10
*3247 input11
*3248 input12
*3249 input13
*3250 input14
*3251 input15
*3252 input16
*3253 input17
*3254 input18
*3255 input19
*3256 input2
*3257 input20
*3258 input21
*3259 input22
*3260 input23
*3261 input3
*3262 input4
*3263 input5
*3264 input6
*3265 input7
*3266 input8
*3267 input9
*3268 output24
*3269 output25
*3270 output26
*3271 output27
*3272 output28

*PORTS
any_match O
cfg_en I
cfg_idx[0] I
cfg_idx[1] I
cfg_mask[0] I
cfg_mask[1] I
cfg_mask[2] I
cfg_mask[3] I
cfg_mask[4] I
cfg_mask[5] I
cfg_mask[6] I
cfg_mask[7] I
cfg_pattern[0] I
cfg_pattern[1] I
cfg_pattern[2] I
cfg_pattern[3] I
cfg_pattern[4] I
cfg_pattern[5] I
cfg_pattern[6] I
cfg_pattern[7] I
cfg_we I
clk I
data_in I
data_valid I
pattern_match[0] O
pattern_match[1] O
pattern_match[2] O
pattern_match[3] O
rst_n I

*D_NET *1 0.00193442
*CONN
*P any_match O
*I *3268:X O *D sky130_fd_sc_hd__clkbuf_4
*CAP
1 any_match 0.00043317
2 *3268:X 0.000534041
3 *1:10 0.000967211
*RES
1 *3268:X *1:10 48.4711 
2 *1:10 any_match 9.61653 
*END

*D_NET *2 0.0022633
*CONN
*P cfg_en I
*I *3245:A I *D sky130_fd_sc_hd__clkbuf_2
*CAP
1 cfg_en 0.00113165
2 *3245:A 0
3 *2:17 0.00113165
4 *2:17 *318:12 0
5 *2:17 *338:30 0
*RES
1 cfg_en *2:17 31.3748 
2 *2:17 *3245:A 23 
*END

*D_NET *3 0.00204722
*CONN
*P cfg_idx[0] I
*I *3256:A I *D sky130_fd_sc_hd__buf_1
*CAP
1 cfg_idx[0] 0.00102361
2 *3256:A 0
3 *3:15 0.00102361
*RES
1 cfg_idx[0] *3:15 28.9926 
2 *3:15 *3256:A 23 
*END

*D_NET *4 0.00180195
*CONN
*P cfg_idx[1] I
*I *3261:A I *D sky130_fd_sc_hd__clkbuf_2
*CAP
1 cfg_idx[1] 0.000900973
2 *3261:A 0
3 *4:11 0.000900973
*RES
1 cfg_idx[1] *4:11 34.4507 
2 *4:11 *3261:A 23 
*END

*D_NET *5 0.00185733
*CONN
*P cfg_mask[0] I
*I *3262:A I *D sky130_fd_sc_hd__clkbuf_2
*CAP
1 cfg_mask[0] 0.000928666
2 *3262:A 0
3 *5:11 0.000928666
*RES
1 cfg_mask[0] *5:11 35.8593 
2 *5:11 *3262:A 23 
*END

*D_NET *6 0.00196635
*CONN
*P cfg_mask[1] I
*I *3263:A I *D sky130_fd_sc_hd__clkbuf_2
*CAP
1 cfg_mask[1] 0.000983176
2 *3263:A 0
3 *6:9 0.000983176
*RES
1 cfg_mask[1] *6:9 35.735 
2 *6:9 *3263:A 23 
*END

*D_NET *7 0.00190572
*CONN
*P cfg_mask[2] I
*I *3264:A I *D sky130_fd_sc_hd__dlymetal6s2s_1
*CAP
1 cfg_mask[2] 0.000952858
2 *3264:A 0
3 *7:13 0.000952858
*RES
1 cfg_mask[2] *7:13 35.0876 
2 *7:13 *3264:A 23 
*END

*D_NET *8 0.00176203
*CONN
*P cfg_mask[3] I
*I *3265:A I *D sky130_fd_sc_hd__dlymetal6s2s_1
*CAP
1 cfg_mask[3] 0.000881014
2 *3265:A 0
3 *8:11 0.000881014
*RES
1 cfg_mask[3] *8:11 34.3264 
2 *8:11 *3265:A 23 
*END

*D_NET *9 0.00186389
*CONN
*P cfg_mask[4] I
*I *3266:A I *D sky130_fd_sc_hd__clkbuf_2
*CAP
1 cfg_mask[4] 0.000915131
2 *3266:A 0
3 *9:9 0.000915131
4 *9:9 *321:6 3.3624e-05
*RES
1 cfg_mask[4] *9:9 34.7821 
2 *9:9 *3266:A 23 
*END

*D_NET *10 0.00219875
*CONN
*P cfg_mask[5] I
*I *3267:A I *D sky130_fd_sc_hd__clkbuf_2
*CAP
1 cfg_mask[5] 0.00100291
2 *3267:A 0
3 *10:9 0.00100291
4 *10:9 *324:6 4.93812e-05
5 *10:9 *390:6 0.000143543
*RES
1 cfg_mask[5] *10:9 37.1436 
2 *10:9 *3267:A 23 
*END

*D_NET *11 0.00285251
*CONN
*P cfg_mask[6] I
*I *3246:A I *D sky130_fd_sc_hd__clkbuf_2
*CAP
1 cfg_mask[6] 0.00142625
2 *3246:A 0
3 *11:13 0.00142625
4 *11:13 *13:9 0
*RES
1 cfg_mask[6] *11:13 36.9469 
2 *11:13 *3246:A 23 
*END

*D_NET *12 0.0018556
*CONN
*P cfg_mask[7] I
*I *3247:A I *D sky130_fd_sc_hd__clkbuf_2
*CAP
1 cfg_mask[7] 0.0009278
2 *3247:A 0
3 *12:9 0.0009278
*RES
1 cfg_mask[7] *12:9 34.7821 
2 *12:9 *3247:A 23 
*END

*D_NET *13 0.00278906
*CONN
*P cfg_pattern[0] I
*I *3248:A I *D sky130_fd_sc_hd__clkbuf_2
*CAP
1 cfg_pattern[0] 0.00139453
2 *3248:A 0
3 *13:9 0.00139453
4 *11:13 *13:9 0
*RES
1 cfg_pattern[0] *13:9 43.3579 
2 *13:9 *3248:A 23 
*END

*D_NET *14 0.00195987
*CONN
*P cfg_pattern[1] I
*I *3249:A I *D sky130_fd_sc_hd__buf_1
*CAP
1 cfg_pattern[1] 0.000979935
2 *3249:A 0
3 *14:13 0.000979935
*RES
1 cfg_pattern[1] *14:13 33.9634 
2 *14:13 *3249:A 23 
*END

*D_NET *15 0.00207336
*CONN
*P cfg_pattern[2] I
*I *3250:A I *D sky130_fd_sc_hd__dlymetal6s2s_1
*CAP
1 cfg_pattern[2] 0.00103668
2 *3250:A 0
3 *15:11 0.00103668
*RES
1 cfg_pattern[2] *15:11 28.8537 
2 *15:11 *3250:A 23 
*END

*D_NET *16 0.00275488
*CONN
*P cfg_pattern[3] I
*I *3251:A I *D sky130_fd_sc_hd__clkbuf_2
*CAP
1 cfg_pattern[3] 0.00137744
2 *3251:A 0
3 *16:9 0.00137744
*RES
1 cfg_pattern[3] *16:9 44.29 
2 *16:9 *3251:A 23 
*END

*D_NET *17 0.00401322
*CONN
*P cfg_pattern[4] I
*I *3252:A I *D sky130_fd_sc_hd__clkbuf_2
*CAP
1 cfg_pattern[4] 0.00158733
2 *3252:A 0
3 *17:15 0.000419278
4 *17:9 0.00200661
5 *17:15 *18:11 0
*RES
1 cfg_pattern[4] *17:9 48.8264 
2 *17:9 *17:15 38.9486 
3 *17:15 *3252:A 23 
*END

*D_NET *18 0.00186444
*CONN
*P cfg_pattern[5] I
*I *3253:A I *D sky130_fd_sc_hd__clkbuf_2
*CAP
1 cfg_pattern[5] 0.000932219
2 *3253:A 0
3 *18:11 0.000932219
4 *17:15 *18:11 0
*RES
1 cfg_pattern[5] *18:11 35.8593 
2 *18:11 *3253:A 23 
*END

*D_NET *19 0.00186665
*CONN
*P cfg_pattern[6] I
*I *3254:A I *D sky130_fd_sc_hd__clkbuf_2
*CAP
1 cfg_pattern[6] 0.000928253
2 *3254:A 0
3 *19:11 0.000928253
4 *19:11 *326:12 1.01436e-05
*RES
1 cfg_pattern[6] *19:11 35.8593 
2 *19:11 *3254:A 23 
*END

*D_NET *20 0.00307835
*CONN
*P cfg_pattern[7] I
*I *3255:A I *D sky130_fd_sc_hd__clkbuf_2
*CAP
1 cfg_pattern[7] 0.00153918
2 *3255:A 0
3 *20:11 0.00153918
*RES
1 cfg_pattern[7] *20:11 39.1517 
2 *20:11 *3255:A 23 
*END

*D_NET *21 0.00207337
*CONN
*P cfg_we I
*I *3257:A I *D sky130_fd_sc_hd__buf_1
*CAP
1 cfg_we 0.000965392
2 *3257:A 0
3 *21:9 0.000965392
4 *21:9 *327:6 0.000142585
*RES
1 cfg_we *21:9 36.5429 
2 *21:9 *3257:A 23 
*END

*D_NET *22 0.0190255
*CONN
*P clk I
*I *3191:A I *D sky130_fd_sc_hd__clkbuf_16
*CAP
1 clk 0.00924955
2 *3191:A 3.33367e-05
3 *22:17 0.00928289
4 *3191:A *2907:A 0
5 *3191:A *153:16 4.93359e-05
6 *22:17 *3134:RESET_B 0.000118028
7 *22:17 *134:12 0.000129592
8 *22:17 *153:16 0.00011951
9 *22:17 *273:14 4.32379e-05
*RES
1 clk *22:17 43.888 
2 *22:17 *3191:A 46.6732 
*END

*D_NET *23 0.00205125
*CONN
*P data_in I
*I *3258:A I *D sky130_fd_sc_hd__buf_1
*CAP
1 data_in 0.000986055
2 *3258:A 0
3 *23:11 0.000986055
4 *23:11 *319:10 1.70419e-05
5 *23:11 *331:10 6.21013e-05
*RES
1 data_in *23:11 28.8537 
2 *23:11 *3258:A 23 
*END

*D_NET *24 0.00199834
*CONN
*P data_valid I
*I *3259:A I *D sky130_fd_sc_hd__buf_4
*CAP
1 data_valid 0.000999168
2 *3259:A 0
3 *24:13 0.000999168
*RES
1 data_valid *24:13 33.9634 
2 *24:13 *3259:A 23 
*END

*D_NET *25 0.00174248
*CONN
*P pattern_match[0] O
*I *3269:X O *D sky130_fd_sc_hd__clkbuf_4
*CAP
1 pattern_match[0] 0.000824871
2 *3269:X 3.02265e-05
3 *25:8 0.000855098
4 *25:8 *384:6 3.22879e-05
*RES
1 *3269:X *25:8 38.6214 
2 *25:8 pattern_match[0] 18.2079 
*END

*D_NET *26 0.0018236
*CONN
*P pattern_match[1] O
*I *3270:X O *D sky130_fd_sc_hd__clkbuf_4
*CAP
1 pattern_match[1] 0.000879465
2 *3270:X 3.23354e-05
3 *26:8 0.000911801
*RES
1 *3270:X *26:8 38.6214 
2 *26:8 pattern_match[1] 19.6164 
*END

*D_NET *27 0.0019744
*CONN
*P pattern_match[2] O
*I *3271:X O *D sky130_fd_sc_hd__clkbuf_4
*CAP
1 pattern_match[2] 0.000533105
2 *3271:X 0.000454092
3 *27:10 0.000987198
*RES
1 *3271:X *27:10 46.9175 
2 *27:10 pattern_match[2] 10.0459 
*END

*D_NET *28 0.00367914
*CONN
*P pattern_match[3] O
*I *3272:X O *D sky130_fd_sc_hd__clkbuf_4
*CAP
1 pattern_match[3] 0.00142148
2 *3272:X 0.000418089
3 *28:8 0.00183957
*RES
1 *3272:X *28:8 46.2443 
2 *28:8 pattern_match[3] 29.7348 
*END

*D_NET *29 0.0019898
*CONN
*P rst_n I
*I *3260:A I *D sky130_fd_sc_hd__clkbuf_2
*CAP
1 rst_n 0.000994899
2 *3260:A 0
3 *29:13 0.000994899
*RES
1 rst_n *29:13 35.564 
2 *29:13 *3260:A 23 
*END

*D_NET *32 0.000366167
*CONN
*I *3115:D I *D sky130_fd_sc_hd__dfrtp_4
*I *2952:X O *D sky130_fd_sc_hd__clkbuf_1
*CAP
1 *3115:D 0.000166939
2 *2952:X 0.000166939
3 *3115:D *3115:CLK 3.22879e-05
*RES
1 *2952:X *3115:D 48.5479 
*END

*D_NET *33 0.00071756
*CONN
*I *3116:D I *D sky130_fd_sc_hd__dfrtp_4
*I *2954:X O *D sky130_fd_sc_hd__clkbuf_1
*CAP
1 *3116:D 9.02433e-05
2 *2954:X 0.00021817
3 *33:8 0.000308413
4 *3116:D *3116:RESET_B 0.000100733
5 *33:8 *34:10 0
6 *33:8 *186:8 0
7 *33:8 *279:52 0
8 *33:8 *320:8 0
*RES
1 *2954:X *33:8 41.6664 
2 *33:8 *3116:D 40.0507 
*END

*D_NET *34 0.00125542
*CONN
*I *3117:D I *D sky130_fd_sc_hd__dfrtp_4
*I *2956:X O *D sky130_fd_sc_hd__clkbuf_1
*CAP
1 *3117:D 0
2 *2956:X 0.000365845
3 *34:10 0.000365845
4 *34:10 *2953:A0 0.000105072
5 *34:10 *143:12 9.84794e-05
6 *34:10 *186:8 0.000166522
7 *34:10 *187:10 0
8 *34:10 *195:65 0
9 *34:10 *279:52 9.46108e-05
10 *34:10 *424:14 5.90503e-05
11 *33:8 *34:10 0
*RES
1 *2956:X *34:10 46.99 
2 *34:10 *3117:D 38 
*END

*D_NET *35 0.000683872
*CONN
*I *3118:D I *D sky130_fd_sc_hd__dfrtp_4
*I *2958:X O *D sky130_fd_sc_hd__clkbuf_1
*CAP
1 *3118:D 0
2 *2958:X 0.000201283
3 *35:10 0.000201283
4 *35:10 *137:10 0.000138143
5 *35:10 *141:10 0
6 *35:10 *184:14 0.000143163
*RES
1 *2958:X *35:10 41.48 
2 *35:10 *3118:D 38 
*END

*D_NET *36 0.000515462
*CONN
*I *3119:D I *D sky130_fd_sc_hd__dfrtp_4
*I *2960:X O *D sky130_fd_sc_hd__clkbuf_1
*CAP
1 *3119:D 0
2 *2960:X 0.000183903
3 *36:10 0.000183903
4 *36:10 *280:48 0
5 *36:10 *427:22 0.000147656
*RES
1 *2960:X *36:10 41.1279 
2 *36:10 *3119:D 38 
*END

*D_NET *37 0.00102901
*CONN
*I *3120:D I *D sky130_fd_sc_hd__dfrtp_4
*I *2962:X O *D sky130_fd_sc_hd__clkbuf_1
*CAP
1 *3120:D 2.21631e-05
2 *2962:X 0.000284482
3 *37:10 0.000306645
4 *3120:D *337:31 2.93845e-05
5 *3120:D *343:73 5.3304e-05
6 *37:10 *207:133 0.00021356
7 *37:10 *276:61 0.000119467
8 *37:10 *318:36 0
*RES
1 *2962:X *37:10 43.4893 
2 *37:10 *3120:D 38.6214 
*END

*D_NET *38 0.000545776
*CONN
*I *3121:D I *D sky130_fd_sc_hd__dfrtp_4
*I *2964:X O *D sky130_fd_sc_hd__clkbuf_1
*CAP
1 *3121:D 0.000100973
2 *2964:X 3.55839e-05
3 *38:8 0.000136557
4 *3121:D *199:162 9.78568e-05
5 *38:8 *128:14 8.62876e-05
6 *38:8 *277:40 8.85189e-05
*RES
1 *2964:X *38:8 39.2014 
2 *38:8 *3121:D 39.4759 
*END

*D_NET *39 0.000258354
*CONN
*I *3122:D I *D sky130_fd_sc_hd__dfrtp_4
*I *2966:X O *D sky130_fd_sc_hd__clkbuf_1
*CAP
1 *3122:D 0
2 *2966:X 4.19718e-05
3 *39:8 4.19718e-05
4 *39:8 *2965:A0 3.72639e-05
5 *39:8 *327:10 0.000116314
6 *39:8 *430:14 2.08324e-05
*RES
1 *2966:X *39:8 39.5536 
2 *39:8 *3122:D 38 
*END

*D_NET *40 0.000500585
*CONN
*I *3123:D I *D sky130_fd_sc_hd__dfrtp_1
*I *2971:X O *D sky130_fd_sc_hd__clkbuf_1
*CAP
1 *3123:D 0
2 *2971:X 0.000110292
3 *40:10 0.000110292
4 *40:10 *109:14 0
5 *40:10 *128:14 8.4047e-05
6 *40:10 *277:40 0.000140949
7 *40:10 *318:55 5.50049e-05
*RES
1 *2971:X *40:10 40.5271 
2 *40:10 *3123:D 38 
*END

*D_NET *41 0.000411535
*CONN
*I *3124:D I *D sky130_fd_sc_hd__dfrtp_1
*I *2976:X O *D sky130_fd_sc_hd__clkbuf_1
*CAP
1 *3124:D 0.000172669
2 *2976:X 0.000172669
3 *3124:D *2976:A 7.53384e-06
4 *3124:D *153:16 3.71251e-05
5 *3124:D *153:26 7.44161e-06
6 *3124:D *277:54 1.40958e-05
*RES
1 *2976:X *3124:D 48.5479 
*END

*D_NET *42 0.000227554
*CONN
*I *3125:D I *D sky130_fd_sc_hd__dfrtp_1
*I *2981:X O *D sky130_fd_sc_hd__clkbuf_1
*CAP
1 *3125:D 0
2 *2981:X 0.000113777
3 *42:8 0.000113777
4 *42:8 *276:48 0
*RES
1 *2981:X *42:8 39.9057 
2 *42:8 *3125:D 38 
*END

*D_NET *43 0.00101534
*CONN
*I *3126:D I *D sky130_fd_sc_hd__dfrtp_1
*I *2986:X O *D sky130_fd_sc_hd__clkbuf_1
*CAP
1 *3126:D 0
2 *2986:X 0.000262075
3 *43:10 0.000262075
4 *43:10 *2909:A1 1.22506e-05
5 *43:10 *2961:A1 2.14486e-05
6 *43:10 *3043:A1 7.71315e-05
7 *43:10 *207:133 0.000211943
8 *43:10 *207:149 0.000132198
9 *43:10 *411:23 3.62219e-05
*RES
1 *2986:X *43:10 43.8207 
2 *43:10 *3126:D 38 
*END

*D_NET *44 0.000380695
*CONN
*I *3127:D I *D sky130_fd_sc_hd__dfrtp_1
*I *2988:X O *D sky130_fd_sc_hd__clkbuf_1
*CAP
1 *3127:D 0.000128793
2 *2988:X 0.000128793
3 *3127:D *2988:A 6.9805e-05
4 *3127:D *3127:CLK 5.3304e-05
*RES
1 *2988:X *3127:D 48.5479 
*END

*D_NET *45 0.000619486
*CONN
*I *3128:D I *D sky130_fd_sc_hd__dfrtp_1
*I *2990:X O *D sky130_fd_sc_hd__clkbuf_1
*CAP
1 *3128:D 0.000156367
2 *2990:X 5.60739e-05
3 *45:8 0.000212441
4 *3128:D *3128:RESET_B 5.50049e-05
5 *3128:D *172:20 5.10805e-05
6 *45:8 *128:14 8.85189e-05
7 *45:8 *195:100 0
*RES
1 *2990:X *45:8 39.2014 
2 *45:8 *3128:D 40.5479 
*END

*D_NET *46 0.000427918
*CONN
*I *3129:D I *D sky130_fd_sc_hd__dfrtp_1
*I *2992:X O *D sky130_fd_sc_hd__clkbuf_1
*CAP
1 *3129:D 6.72871e-05
2 *2992:X 4.31292e-05
3 *46:8 0.000110416
4 *3129:D *3129:RESET_B 1.1258e-05
5 *3129:D *199:63 6.17437e-06
6 *3129:D *273:99 2.19667e-05
7 *3129:D *279:10 3.86731e-05
8 *46:8 *199:63 4.11274e-05
9 *46:8 *279:16 8.78864e-05
*RES
1 *2992:X *46:8 39.2014 
2 *46:8 *3129:D 39.595 
*END

*D_NET *47 0.000495694
*CONN
*I *3130:D I *D sky130_fd_sc_hd__dfrtp_1
*I *2994:X O *D sky130_fd_sc_hd__clkbuf_1
*CAP
1 *3130:D 0
2 *2994:X 0.000247847
3 *47:10 0.000247847
*RES
1 *2994:X *47:10 41.6043 
2 *47:10 *3130:D 38 
*END

*D_NET *48 0.000606606
*CONN
*I *3131:D I *D sky130_fd_sc_hd__dfrtp_1
*I *2996:X O *D sky130_fd_sc_hd__clkbuf_1
*CAP
1 *3131:D 1.08608e-05
2 *2996:X 0.000146008
3 *48:10 0.000156869
4 *3131:D *3131:CLK 7.71797e-06
5 *48:10 *3131:CLK 0.000136486
6 *48:10 *202:44 9.53602e-05
7 *48:10 *213:8 0
8 *48:10 *427:72 5.3304e-05
*RES
1 *2996:X *48:10 41.2314 
2 *48:10 *3131:D 38.1813 
*END

*D_NET *49 0.000689095
*CONN
*I *3132:D I *D sky130_fd_sc_hd__dfrtp_1
*I *2998:X O *D sky130_fd_sc_hd__clkbuf_1
*CAP
1 *3132:D 0.000224121
2 *2998:X 6.14794e-05
3 *49:8 0.000285601
4 *3132:D *326:41 2.93747e-05
5 *49:8 *202:16 0
6 *49:8 *326:41 8.85189e-05
*RES
1 *2998:X *49:8 39.2014 
2 *49:8 *3132:D 41.8529 
*END

*D_NET *50 0.000383429
*CONN
*I *3133:D I *D sky130_fd_sc_hd__dfrtp_1
*I *3000:X O *D sky130_fd_sc_hd__clkbuf_1
*CAP
1 *3133:D 0.000180587
2 *3000:X 0.000180587
3 *3133:D *3133:CLK 2.10502e-05
4 *3133:D *231:10 1.20433e-06
*RES
1 *3000:X *3133:D 48.5479 
*END

*D_NET *51 0.000254456
*CONN
*I *3134:D I *D sky130_fd_sc_hd__dfrtp_1
*I *3002:X O *D sky130_fd_sc_hd__clkbuf_1
*CAP
1 *3134:D 0
2 *3002:X 7.10302e-05
3 *51:8 7.10302e-05
4 *51:8 *172:20 0.000112396
*RES
1 *3002:X *51:8 39.5536 
2 *51:8 *3134:D 38 
*END

*D_NET *52 0.00109548
*CONN
*I *3135:D I *D sky130_fd_sc_hd__dfrtp_1
*I *3004:X O *D sky130_fd_sc_hd__clkbuf_1
*CAP
1 *3135:D 0.000142325
2 *3004:X 0.000254711
3 *52:10 0.000397036
4 *52:10 *3004:A 5.73309e-05
5 *52:10 *351:25 0.000141888
6 *52:10 *399:10 8.62783e-05
7 *52:10 *399:14 1.21972e-05
8 *52:10 *399:16 3.7122e-06
*RES
1 *3004:X *52:10 42.4329 
2 *52:10 *3135:D 40.0507 
*END

*D_NET *53 0.000605002
*CONN
*I *3136:D I *D sky130_fd_sc_hd__dfrtp_1
*I *3006:X O *D sky130_fd_sc_hd__clkbuf_1
*CAP
1 *3136:D 2.15027e-05
2 *3006:X 0.000235789
3 *53:8 0.000257292
4 *3136:D *275:27 5.58003e-05
5 *53:8 *85:10 0
6 *53:8 *400:37 0
7 *53:8 *424:68 3.46181e-05
*RES
1 *3006:X *53:8 42.3707 
2 *53:8 *3136:D 38.6214 
*END

*D_NET *54 0.000601039
*CONN
*I *3137:D I *D sky130_fd_sc_hd__dfrtp_1
*I *3008:X O *D sky130_fd_sc_hd__clkbuf_1
*CAP
1 *3137:D 0.000112589
2 *3008:X 6.47279e-05
3 *54:8 0.000177317
4 *3137:D *138:10 7.61229e-06
5 *3137:D *296:27 6.15983e-05
6 *54:8 *2881:A1 3.60975e-05
7 *54:8 *324:10 0.000138747
8 *54:8 *393:23 2.35118e-06
*RES
1 *3008:X *54:8 39.9057 
2 *54:8 *3137:D 40.0507 
*END

*D_NET *55 0.00101656
*CONN
*I *3138:D I *D sky130_fd_sc_hd__dfrtp_1
*I *3010:X O *D sky130_fd_sc_hd__clkbuf_1
*CAP
1 *3138:D 0.000136254
2 *3010:X 0.000130199
3 *55:8 0.000266454
4 *3138:D *3138:CLK 0.00010018
5 *3138:D *332:43 4.96303e-05
6 *3138:D *425:83 6.68286e-05
7 *55:8 *2957:A0 1.01436e-05
8 *55:8 *120:18 0
9 *55:8 *139:16 0
10 *55:8 *324:31 0.000218023
11 *55:8 *332:49 3.88504e-05
*RES
1 *3010:X *55:8 40.9621 
2 *55:8 *3138:D 41.3764 
*END

*D_NET *56 0.000612881
*CONN
*I *3139:D I *D sky130_fd_sc_hd__dfrtp_1
*I *3012:X O *D sky130_fd_sc_hd__clkbuf_1
*CAP
1 *3139:D 0
2 *3012:X 0.000226081
3 *56:10 0.000226081
4 *56:10 *206:59 0
5 *56:10 *277:10 0.000138708
6 *56:10 *277:17 2.20111e-05
*RES
1 *3012:X *56:10 41.48 
2 *56:10 *3139:D 38 
*END

*D_NET *57 0.00123232
*CONN
*I *3140:D I *D sky130_fd_sc_hd__dfrtp_1
*I *3014:X O *D sky130_fd_sc_hd__clkbuf_1
*CAP
1 *3140:D 2.24548e-05
2 *3014:X 0.000431958
3 *57:10 0.000454413
4 *3140:D *275:70 5.50106e-05
5 *57:10 *3140:RESET_B 0
6 *57:10 *275:87 8.62876e-05
7 *57:10 *326:41 0.0001822
8 *57:10 *339:20 0
*RES
1 *3014:X *57:10 45.8093 
2 *57:10 *3140:D 38.6214 
*END

*D_NET *58 0.000581015
*CONN
*I *3141:D I *D sky130_fd_sc_hd__dfrtp_1
*I *3016:X O *D sky130_fd_sc_hd__clkbuf_1
*CAP
1 *3141:D 6.2347e-05
2 *3016:X 0.000152956
3 *58:10 0.000215303
4 *3141:D *280:33 5.19297e-05
5 *58:10 *223:10 0
6 *58:10 *332:29 9.84794e-05
*RES
1 *3016:X *58:10 40.2993 
2 *58:10 *3141:D 38.9995 
*END

*D_NET *59 0.00110241
*CONN
*I *3142:D I *D sky130_fd_sc_hd__dfrtp_1
*I *3018:X O *D sky130_fd_sc_hd__clkbuf_1
*CAP
1 *3142:D 0
2 *3018:X 0.000234565
3 *59:10 0.000234565
4 *59:10 *2895:A1 0.000215782
5 *59:10 *3018:A 2.32004e-05
6 *59:10 *198:33 0.000215782
7 *59:10 *278:8 0.000178517
*RES
1 *3018:X *59:10 43.4893 
2 *59:10 *3142:D 38 
*END

*D_NET *60 0.000412811
*CONN
*I *3143:D I *D sky130_fd_sc_hd__dfrtp_1
*I *3020:X O *D sky130_fd_sc_hd__clkbuf_1
*CAP
1 *3143:D 0
2 *3020:X 0.000122591
3 *60:10 0.000122591
4 *60:10 *161:10 5.67058e-05
5 *60:10 *321:12 0.000100778
6 *60:10 *321:14 1.01436e-05
7 *60:10 *423:31 0
*RES
1 *3020:X *60:10 40.175 
2 *60:10 *3143:D 38 
*END

*D_NET *61 0.000502905
*CONN
*I *3144:D I *D sky130_fd_sc_hd__dfrtp_1
*I *3022:X O *D sky130_fd_sc_hd__clkbuf_1
*CAP
1 *3144:D 3.10341e-05
2 *3022:X 0.000210806
3 *61:10 0.00024184
4 *3144:D *274:64 1.92253e-05
*RES
1 *3022:X *61:10 41.0036 
2 *61:10 *3144:D 38.6214 
*END

*D_NET *62 0.000307878
*CONN
*I *3145:D I *D sky130_fd_sc_hd__dfrtp_1
*I *3024:X O *D sky130_fd_sc_hd__clkbuf_1
*CAP
1 *3145:D 0.000112146
2 *3024:X 0.000112146
3 *3145:D *3024:A 3.98818e-05
4 *3145:D *279:126 4.37033e-05
*RES
1 *3024:X *3145:D 48.5479 
*END

*D_NET *63 0.000600617
*CONN
*I *3146:D I *D sky130_fd_sc_hd__dfrtp_1
*I *3026:X O *D sky130_fd_sc_hd__clkbuf_1
*CAP
1 *3146:D 0
2 *3026:X 0.000132775
3 *63:10 0.000132775
4 *63:10 *71:10 5.91383e-05
5 *63:10 *203:125 5.67058e-05
6 *63:10 *281:10 0.000188926
7 *63:10 *281:23 1.01436e-05
8 *63:10 *320:8 2.01531e-05
*RES
1 *3026:X *63:10 41.2314 
2 *63:10 *3146:D 38 
*END

*D_NET *64 0.000549635
*CONN
*I *3147:D I *D sky130_fd_sc_hd__dfrtp_1
*I *3028:X O *D sky130_fd_sc_hd__clkbuf_1
*CAP
1 *3147:D 0
2 *3028:X 0.00020299
3 *64:10 0.00020299
4 *64:10 *318:24 0.000143655
*RES
1 *3028:X *64:10 41.48 
2 *64:10 *3147:D 38 
*END

*D_NET *65 0.000255286
*CONN
*I *3148:D I *D sky130_fd_sc_hd__dfrtp_1
*I *3030:X O *D sky130_fd_sc_hd__clkbuf_1
*CAP
1 *3148:D 0
2 *3030:X 0.000105215
3 *65:8 0.000105215
4 *65:8 *230:10 4.48568e-05
*RES
1 *3030:X *65:8 39.9057 
2 *65:8 *3148:D 38 
*END

*D_NET *66 0.000499901
*CONN
*I *3149:D I *D sky130_fd_sc_hd__dfrtp_1
*I *3032:X O *D sky130_fd_sc_hd__clkbuf_1
*CAP
1 *3149:D 7.12192e-05
2 *3032:X 7.12192e-05
3 *3149:D *182:14 6.93242e-05
4 *3149:D *280:71 0.000288138
*RES
1 *3032:X *3149:D 49.1693 
*END

*D_NET *67 0.000511772
*CONN
*I *3150:D I *D sky130_fd_sc_hd__dfrtp_1
*I *3034:X O *D sky130_fd_sc_hd__clkbuf_1
*CAP
1 *3150:D 0
2 *3034:X 0.000198845
3 *67:10 0.000198845
4 *67:10 *275:37 0.000114083
5 *67:10 *344:29 0
*RES
1 *3034:X *67:10 41.1279 
2 *67:10 *3150:D 38 
*END

*D_NET *68 0.00029584
*CONN
*I *3151:D I *D sky130_fd_sc_hd__dfrtp_1
*I *3036:X O *D sky130_fd_sc_hd__clkbuf_1
*CAP
1 *3151:D 5.9597e-05
2 *3036:X 6.66531e-05
3 *68:8 0.00012625
4 *3151:D *281:65 0
5 *68:8 *233:10 4.334e-05
*RES
1 *3036:X *68:8 39.2014 
2 *68:8 *3151:D 39.1186 
*END

*D_NET *69 0.000595121
*CONN
*I *3152:D I *D sky130_fd_sc_hd__dfrtp_1
*I *3038:X O *D sky130_fd_sc_hd__clkbuf_1
*CAP
1 *3152:D 9.31048e-05
2 *3038:X 9.8008e-05
3 *69:8 0.000191113
4 *3152:D *3152:CLK 6.17437e-06
5 *3152:D *274:92 6.55954e-05
6 *69:8 *203:12 9.52228e-05
7 *69:8 *274:92 4.59027e-05
8 *69:8 *340:16 0
*RES
1 *3038:X *69:8 40.61 
2 *69:8 *3152:D 39.5743 
*END

*D_NET *70 0.000752827
*CONN
*I *3153:D I *D sky130_fd_sc_hd__dfrtp_1
*I *3040:X O *D sky130_fd_sc_hd__clkbuf_1
*CAP
1 *3153:D 0.00019688
2 *3040:X 4.1948e-05
3 *70:8 0.000238828
4 *3153:D *3153:CLK 0.000102438
5 *3153:D *409:12 4.58484e-05
6 *70:8 *346:67 8.57577e-05
7 *70:8 *409:24 4.11274e-05
*RES
1 *3040:X *70:8 39.2014 
2 *70:8 *3153:D 41.0243 
*END

*D_NET *71 0.00160089
*CONN
*I *3154:D I *D sky130_fd_sc_hd__dfrtp_1
*I *3042:X O *D sky130_fd_sc_hd__clkbuf_1
*CAP
1 *3154:D 0
2 *3042:X 0.000396018
3 *71:10 0.000396018
4 *71:10 *182:12 0.000144221
5 *71:10 *281:23 0.000121201
6 *71:10 *320:8 0.000484291
7 *63:10 *71:10 5.91383e-05
*RES
1 *3042:X *71:10 47.4871 
2 *71:10 *3154:D 38 
*END

*D_NET *72 0.000480863
*CONN
*I *3155:D I *D sky130_fd_sc_hd__dfrtp_1
*I *3044:X O *D sky130_fd_sc_hd__clkbuf_1
*CAP
1 *3155:D 4.3992e-05
2 *3044:X 0.000167087
3 *72:10 0.000211079
4 *3155:D *3155:CLK 3.57857e-05
5 *72:10 *340:8 2.29192e-05
*RES
1 *3044:X *72:10 40.2993 
2 *72:10 *3155:D 38.6888 
*END

*D_NET *73 0.000697996
*CONN
*I *3156:D I *D sky130_fd_sc_hd__dfrtp_1
*I *3046:X O *D sky130_fd_sc_hd__clkbuf_1
*CAP
1 *3156:D 0
2 *3046:X 0.000312102
3 *73:10 0.000312102
4 *73:10 *3029:A1 1.02387e-05
5 *73:10 *274:16 3.81391e-05
6 *73:10 *326:14 2.5415e-05
*RES
1 *3046:X *73:10 42.5571 
2 *73:10 *3156:D 38 
*END

*D_NET *74 0.000525473
*CONN
*I *3157:D I *D sky130_fd_sc_hd__dfrtp_1
*I *3048:X O *D sky130_fd_sc_hd__clkbuf_1
*CAP
1 *3157:D 0
2 *3048:X 0.000140591
3 *74:10 0.000140591
4 *74:10 *207:172 0.00010018
5 *74:10 *298:16 0.00014411
6 *74:10 *342:56 0
*RES
1 *3048:X *74:10 41.0036 
2 *74:10 *3157:D 38 
*END

*D_NET *75 0.00052536
*CONN
*I *3158:D I *D sky130_fd_sc_hd__dfrtp_1
*I *3050:X O *D sky130_fd_sc_hd__clkbuf_1
*CAP
1 *3158:D 2.63249e-05
2 *3050:X 0.000194598
3 *75:10 0.000220923
4 *3158:D *198:29 2.93747e-05
5 *75:10 *275:37 0
6 *75:10 *341:10 0
7 *75:10 *344:12 5.41385e-05
*RES
1 *3050:X *75:10 41.0036 
2 *75:10 *3158:D 38.6214 
*END

*D_NET *76 0.000267749
*CONN
*I *3159:D I *D sky130_fd_sc_hd__dfrtp_1
*I *3052:X O *D sky130_fd_sc_hd__clkbuf_1
*CAP
1 *3159:D 0.000133875
2 *3052:X 0.000133875
*RES
1 *3052:X *3159:D 48.5479 
*END

*D_NET *77 0.000332163
*CONN
*I *3160:D I *D sky130_fd_sc_hd__dfrtp_1
*I *3054:X O *D sky130_fd_sc_hd__clkbuf_1
*CAP
1 *3160:D 2.81847e-05
2 *3054:X 9.38242e-05
3 *77:8 0.000122009
4 *3160:D *153:26 2.30292e-05
5 *77:8 *242:8 6.51161e-05
6 *77:8 *277:10 0
*RES
1 *3054:X *77:8 39.9057 
2 *77:8 *3160:D 38.6214 
*END

*D_NET *78 0.00043558
*CONN
*I *3161:D I *D sky130_fd_sc_hd__dfrtp_1
*I *3056:X O *D sky130_fd_sc_hd__clkbuf_1
*CAP
1 *3161:D 0.000132228
2 *3056:X 0.000132228
3 *3161:D *3056:A 5.56279e-05
4 *3161:D *3161:RESET_B 5.67058e-05
5 *3161:D *202:120 3.56215e-05
6 *3161:D *278:60 2.31687e-05
*RES
1 *3056:X *3161:D 49.0243 
*END

*D_NET *79 0.000591222
*CONN
*I *3162:D I *D sky130_fd_sc_hd__dfrtp_1
*I *3058:X O *D sky130_fd_sc_hd__clkbuf_1
*CAP
1 *3162:D 0.000125676
2 *3058:X 0.000116061
3 *79:8 0.000241737
4 *3162:D *3057:S 0.000107748
5 *79:8 *280:78 0
6 *79:8 *348:77 0
*RES
1 *3058:X *79:8 39.9057 
2 *79:8 *3162:D 41.0036 
*END

*D_NET *80 0.000600656
*CONN
*I *3163:D I *D sky130_fd_sc_hd__dfrtp_1
*I *3060:X O *D sky130_fd_sc_hd__clkbuf_1
*CAP
1 *3163:D 0
2 *3060:X 0.000190012
3 *80:10 0.000190012
4 *80:10 *3163:RESET_B 0.000114083
5 *80:10 *245:8 0.00010655
6 *80:10 *277:103 0
*RES
1 *3060:X *80:10 41.6043 
2 *80:10 *3163:D 38 
*END

*D_NET *81 0.000477122
*CONN
*I *3164:D I *D sky130_fd_sc_hd__dfrtp_1
*I *3062:X O *D sky130_fd_sc_hd__clkbuf_1
*CAP
1 *3164:D 0
2 *3062:X 0.000172974
3 *81:10 0.000172974
4 *81:10 *3062:A 2.02517e-05
5 *81:10 *3172:RESET_B 0
6 *81:10 *194:30 0
7 *81:10 *275:47 0.000110922
*RES
1 *3062:X *81:10 41.1071 
2 *81:10 *3164:D 38 
*END

*D_NET *82 0.000981666
*CONN
*I *3165:D I *D sky130_fd_sc_hd__dfrtp_1
*I *3064:X O *D sky130_fd_sc_hd__clkbuf_1
*CAP
1 *3165:D 0
2 *3064:X 0.000291148
3 *82:10 0.000291148
4 *82:10 *206:104 0.000187996
5 *82:10 *316:14 0.000149138
6 *82:10 *344:45 6.22372e-05
*RES
1 *3064:X *82:10 43.4686 
2 *82:10 *3165:D 38 
*END

*D_NET *83 0.00043369
*CONN
*I *3166:D I *D sky130_fd_sc_hd__dfrtp_1
*I *3066:X O *D sky130_fd_sc_hd__clkbuf_1
*CAP
1 *3166:D 0
2 *3066:X 0.000165896
3 *83:10 0.000165896
4 *83:10 *194:82 5.70419e-05
5 *83:10 *327:10 4.48568e-05
6 *83:10 *336:10 0
*RES
1 *3066:X *83:10 41.0036 
2 *83:10 *3166:D 38 
*END

*D_NET *84 0.000337677
*CONN
*I *3167:D I *D sky130_fd_sc_hd__dfrtp_1
*I *3068:X O *D sky130_fd_sc_hd__clkbuf_1
*CAP
1 *3167:D 0.000160129
2 *3068:X 0.000160129
3 *3167:D *3068:A 7.53384e-06
4 *3167:D *279:52 9.88574e-06
*RES
1 *3068:X *3167:D 48.6929 
*END

*D_NET *85 0.00103653
*CONN
*I *3168:D I *D sky130_fd_sc_hd__dfrtp_1
*I *3070:X O *D sky130_fd_sc_hd__clkbuf_1
*CAP
1 *3168:D 4.43927e-05
2 *3070:X 0.000408227
3 *85:10 0.00045262
4 *3168:D *3168:CLK 6.17437e-06
5 *3168:D *424:81 8.06804e-06
6 *85:10 *3168:CLK 6.22581e-05
7 *85:10 *173:10 0
8 *85:10 *202:27 0
9 *85:10 *322:28 5.47927e-05
10 *53:8 *85:10 0
*RES
1 *3070:X *85:10 45.0014 
2 *85:10 *3168:D 38.6214 
*END

*D_NET *86 0.000448681
*CONN
*I *3169:D I *D sky130_fd_sc_hd__dfrtp_1
*I *3072:X O *D sky130_fd_sc_hd__clkbuf_1
*CAP
1 *3169:D 0.000171331
2 *3072:X 0.000171331
3 *3169:D *3169:CLK 6.05361e-05
4 *3169:D *206:181 4.54829e-05
5 *3169:D *345:8 0
*RES
1 *3072:X *3169:D 48.5479 
*END

*D_NET *87 0.000498014
*CONN
*I *3170:D I *D sky130_fd_sc_hd__dfrtp_1
*I *3074:X O *D sky130_fd_sc_hd__clkbuf_1
*CAP
1 *3170:D 8.36171e-05
2 *3074:X 0.000108494
3 *87:8 0.000192111
4 *3170:D *3170:RESET_B 7.51453e-06
5 *3170:D *348:102 0.000106277
*RES
1 *3074:X *87:8 39.9057 
2 *87:8 *3170:D 40.0507 
*END

*D_NET *88 0.000369603
*CONN
*I *3171:D I *D sky130_fd_sc_hd__dfrtp_1
*I *3076:X O *D sky130_fd_sc_hd__clkbuf_1
*CAP
1 *3171:D 7.21532e-05
2 *3076:X 6.19464e-05
3 *88:8 0.0001341
4 *3171:D *277:123 6.05398e-05
5 *88:8 *202:61 0
6 *88:8 *253:8 4.08641e-05
*RES
1 *3076:X *88:8 39.2014 
2 *88:8 *3171:D 39.1652 
*END

*D_NET *89 0.000441252
*CONN
*I *3172:D I *D sky130_fd_sc_hd__dfrtp_1
*I *3078:X O *D sky130_fd_sc_hd__clkbuf_1
*CAP
1 *3172:D 9.54532e-05
2 *3078:X 7.6967e-05
3 *89:8 0.00017242
4 *3172:D *3172:CLK 5.88665e-05
5 *3172:D *194:14 1.70513e-05
6 *89:8 *3172:CLK 2.24366e-06
7 *89:8 *197:10 0
8 *89:8 *275:70 1.82497e-05
*RES
1 *3078:X *89:8 39.2014 
2 *89:8 *3172:D 39.595 
*END

*D_NET *90 0.000521548
*CONN
*I *3173:D I *D sky130_fd_sc_hd__dfrtp_1
*I *3080:X O *D sky130_fd_sc_hd__clkbuf_1
*CAP
1 *3173:D 9.84953e-05
2 *3080:X 8.05681e-05
3 *90:8 0.000179063
4 *3173:D *3237:A 0.00010779
5 *90:8 *255:10 5.56306e-05
6 *90:8 *280:119 0
7 *90:8 *319:16 0
8 *90:8 *319:22 0
*RES
1 *3080:X *90:8 39.5536 
2 *90:8 *3173:D 40.0507 
*END

*D_NET *91 0.000451017
*CONN
*I *3174:D I *D sky130_fd_sc_hd__dfrtp_1
*I *3082:X O *D sky130_fd_sc_hd__clkbuf_1
*CAP
1 *3174:D 0
2 *3082:X 0.000152472
3 *91:10 0.000152472
4 *91:10 *198:104 0.00010018
5 *91:10 *278:20 0
6 *91:10 *328:14 4.58924e-05
*RES
1 *3082:X *91:10 41.0036 
2 *91:10 *3174:D 38 
*END

*D_NET *92 0.000407167
*CONN
*I *3175:D I *D sky130_fd_sc_hd__dfrtp_1
*I *3084:X O *D sky130_fd_sc_hd__clkbuf_1
*CAP
1 *3175:D 0.000168123
2 *3084:X 0.000168123
3 *3175:D *3084:A 4.15358e-05
4 *3175:D *281:151 2.93845e-05
*RES
1 *3084:X *3175:D 49.045 
*END

*D_NET *93 0.000615855
*CONN
*I *3176:D I *D sky130_fd_sc_hd__dfrtp_1
*I *3086:X O *D sky130_fd_sc_hd__clkbuf_1
*CAP
1 *3176:D 0
2 *3086:X 0.000274493
3 *93:10 0.000274493
4 *93:10 *340:8 6.6869e-05
*RES
1 *3086:X *93:10 41.9564 
2 *93:10 *3176:D 38 
*END

*D_NET *94 0.000343866
*CONN
*I *3177:D I *D sky130_fd_sc_hd__dfrtp_1
*I *3088:X O *D sky130_fd_sc_hd__clkbuf_1
*CAP
1 *3177:D 2.24686e-05
2 *3088:X 9.59055e-05
3 *94:8 0.000118374
4 *3177:D *279:96 5.50049e-05
5 *94:8 *3177:RESET_B 5.21127e-05
*RES
1 *3088:X *94:8 39.5536 
2 *94:8 *3177:D 38.6214 
*END

*D_NET *95 0.00225577
*CONN
*I *3178:D I *D sky130_fd_sc_hd__dfrtp_1
*I *3090:X O *D sky130_fd_sc_hd__clkbuf_1
*CAP
1 *3178:D 0.000141836
2 *3090:X 0.000807806
3 *95:8 0.000949642
4 *3178:D *3178:CLK 9.2462e-05
5 *95:8 *3218:A 0.000185133
6 *95:8 *268:10 7.88926e-05
*RES
1 *3090:X *95:8 49.1029 
2 *95:8 *3178:D 40.5271 
*END

*D_NET *96 0.000600419
*CONN
*I *3179:D I *D sky130_fd_sc_hd__dfrtp_1
*I *3092:X O *D sky130_fd_sc_hd__clkbuf_1
*CAP
1 *3179:D 2.31371e-05
2 *3092:X 0.000230725
3 *96:10 0.000253862
4 *3179:D *306:10 5.67058e-05
5 *96:10 *3187:CLK 3.22879e-05
6 *96:10 *3187:RESET_B 0
7 *96:10 *261:8 3.70071e-06
8 *96:10 *276:99 0
*RES
1 *3092:X *96:10 41.7079 
2 *96:10 *3179:D 38.6214 
*END

*D_NET *97 0.00126574
*CONN
*I *3180:D I *D sky130_fd_sc_hd__dfrtp_1
*I *3094:X O *D sky130_fd_sc_hd__clkbuf_1
*CAP
1 *3180:D 0.000397695
2 *3094:X 0.00012755
3 *97:8 0.000525245
4 *3180:D *274:29 0.000126708
5 *97:8 *3188:RESET_B 0
6 *97:8 *274:29 4.54033e-05
7 *97:8 *307:10 0
8 *97:8 *325:10 4.31366e-05
9 *97:8 *339:56 0
*RES
1 *3094:X *97:8 40.9621 
2 *97:8 *3180:D 43.4064 
*END

*D_NET *98 0.00160647
*CONN
*I *3181:D I *D sky130_fd_sc_hd__dfrtp_1
*I *3096:X O *D sky130_fd_sc_hd__clkbuf_1
*CAP
1 *3181:D 0.000476073
2 *3096:X 5.94923e-05
3 *98:8 0.000535566
4 *3181:D *198:55 0.000449058
5 *98:8 *308:12 8.62783e-05
6 *98:8 *335:12 0
*RES
1 *3096:X *98:8 39.2014 
2 *98:8 *3181:D 45.3587 
*END

*D_NET *99 0.000732348
*CONN
*I *3182:D I *D sky130_fd_sc_hd__dfrtp_1
*I *3098:X O *D sky130_fd_sc_hd__clkbuf_1
*CAP
1 *3182:D 4.1583e-05
2 *3098:X 9.15997e-05
3 *99:8 0.000133183
4 *3182:D *206:136 0.000141052
5 *3182:D *278:28 7.4416e-05
6 *99:8 *317:14 0.000191166
7 *99:8 *327:10 5.93485e-05
*RES
1 *3098:X *99:8 40.61 
2 *99:8 *3182:D 39.5743 
*END

*D_NET *100 0.000317364
*CONN
*I *3183:D I *D sky130_fd_sc_hd__dfrtp_1
*I *3100:X O *D sky130_fd_sc_hd__clkbuf_1
*CAP
1 *3183:D 0.00012741
2 *3100:X 0.00012741
3 *3183:D *281:65 5.50106e-05
4 *3183:D *347:80 7.53384e-06
*RES
1 *3100:X *3183:D 48.5479 
*END

*D_NET *101 0.000970015
*CONN
*I *3184:D I *D sky130_fd_sc_hd__dfrtp_1
*I *3102:X O *D sky130_fd_sc_hd__clkbuf_1
*CAP
1 *3184:D 0.000109047
2 *3102:X 0.000244718
3 *101:8 0.000353765
4 *3184:D *3038:A 7.53384e-06
5 *3184:D *3184:RESET_B 5.12254e-05
6 *101:8 *3144:RESET_B 5.56203e-05
7 *101:8 *207:118 0
8 *101:8 *207:133 0
9 *101:8 *266:10 4.334e-05
10 *101:8 *325:18 0
11 *101:8 *339:91 4.4382e-05
12 *101:8 *416:36 6.03841e-05
*RES
1 *3102:X *101:8 43.075 
2 *101:8 *3184:D 40.0507 
*END

*D_NET *102 0.000324852
*CONN
*I *3185:D I *D sky130_fd_sc_hd__dfrtp_1
*I *3104:X O *D sky130_fd_sc_hd__clkbuf_1
*CAP
1 *3185:D 0.00013183
2 *3104:X 0.00013183
3 *3185:D *3104:A 1.32314e-05
4 *3185:D *206:181 4.79612e-05
*RES
1 *3104:X *3185:D 48.5479 
*END

*D_NET *103 0.000395185
*CONN
*I *3186:D I *D sky130_fd_sc_hd__dfrtp_1
*I *3106:X O *D sky130_fd_sc_hd__clkbuf_1
*CAP
1 *3186:D 9.97888e-05
2 *3106:X 5.11113e-05
3 *103:8 0.0001509
4 *3186:D *3186:CLK 3.59554e-06
5 *3186:D *384:40 8.08139e-06
6 *103:8 *3186:CLK 4.08537e-05
7 *103:8 *320:8 4.08537e-05
*RES
1 *3106:X *103:8 39.2014 
2 *103:8 *3186:D 39.1652 
*END

*D_NET *104 0.000454102
*CONN
*I *3187:D I *D sky130_fd_sc_hd__dfrtp_1
*I *3108:X O *D sky130_fd_sc_hd__clkbuf_1
*CAP
1 *3187:D 5.0586e-05
2 *3108:X 0.000105488
3 *104:8 0.000156074
4 *3187:D *261:8 0.000141954
*RES
1 *3108:X *104:8 39.5536 
2 *104:8 *3187:D 39.5743 
*END

*D_NET *105 0.00194191
*CONN
*I *3188:D I *D sky130_fd_sc_hd__dfrtp_1
*I *3110:X O *D sky130_fd_sc_hd__clkbuf_1
*CAP
1 *3188:D 0.000430023
2 *3110:X 0.000255308
3 *105:10 0.000685331
4 *3188:D *2982:B 7.53384e-06
5 *3188:D *340:22 0.000438114
6 *3188:D *340:30 0.00010018
7 *105:10 *205:10 2.5415e-05
8 *105:10 *315:8 0
*RES
1 *3110:X *105:10 41.3557 
2 *105:10 *3188:D 49.5793 
*END

*D_NET *106 0.00153719
*CONN
*I *3189:D I *D sky130_fd_sc_hd__dfrtp_1
*I *3112:X O *D sky130_fd_sc_hd__clkbuf_1
*CAP
1 *3189:D 0.000453335
2 *3112:X 6.55146e-05
3 *106:8 0.00051885
4 *3189:D *3165:CLK 0.000275792
5 *3189:D *202:71 0.000182832
6 *106:8 *206:104 0
7 *106:8 *271:8 4.08641e-05
*RES
1 *3112:X *106:8 39.2014 
2 *106:8 *3189:D 45.3587 
*END

*D_NET *107 0.000571592
*CONN
*I *3190:D I *D sky130_fd_sc_hd__dfrtp_1
*I *3114:X O *D sky130_fd_sc_hd__clkbuf_1
*CAP
1 *3190:D 5.17409e-05
2 *3114:X 0.000156566
3 *107:10 0.000208307
4 *3190:D *194:36 1.73399e-05
5 *107:10 *206:136 9.67842e-05
6 *107:10 *278:36 4.08537e-05
7 *107:10 *317:14 0
*RES
1 *3114:X *107:10 40.2993 
2 *107:10 *3190:D 39.1186 
*END

*D_NET *108 0.00078883
*CONN
*I *2870:B1 I *D sky130_fd_sc_hd__a21o_1
*I *2869:Y O *D sky130_fd_sc_hd__o21ai_1
*CAP
1 *2870:B1 3.53771e-05
2 *2869:Y 0.00019665
3 *108:10 0.000232027
4 *2870:B1 *207:172 5.56356e-05
5 *2870:B1 *427:32 3.54437e-05
6 *108:10 *194:104 0
7 *108:10 *277:90 0.000100061
8 *108:10 *290:12 6.98442e-05
9 *108:10 *395:29 0
10 *108:10 *427:70 6.37905e-05
*RES
1 *2869:Y *108:10 42.4121 
2 *108:10 *2870:B1 39.1186 
*END

*D_NET *109 0.00505554
*CONN
*I *2877:A I *D sky130_fd_sc_hd__and4_1
*I *2870:X O *D sky130_fd_sc_hd__a21o_1
*CAP
1 *2877:A 0
2 *2870:X 9.42696e-05
3 *109:14 0.00131958
4 *109:8 0.00141385
5 *109:8 *207:172 0.00014419
6 *109:8 *427:32 0.00014419
7 *109:14 *128:14 0.000398229
8 *109:14 *195:115 0.000130755
9 *109:14 *200:10 1.13589e-05
10 *109:14 *277:40 0
11 *109:14 *277:54 0.000343836
12 *109:14 *298:16 0.000250626
13 *109:14 *342:49 0.000360011
14 *109:14 *342:56 0.000303607
15 *109:14 *343:31 4.08641e-05
16 *109:14 *424:28 0.00010018
17 *40:10 *109:14 0
*RES
1 *2870:X *109:8 41.0036 
2 *109:8 *109:14 49.3443 
3 *109:14 *2877:A 23 
*END

*D_NET *110 0.000315828
*CONN
*I *2872:B1 I *D sky130_fd_sc_hd__a21o_1
*I *2871:Y O *D sky130_fd_sc_hd__o21ai_1
*CAP
1 *2872:B1 0
2 *2871:Y 7.50405e-05
3 *110:8 7.50405e-05
4 *110:8 *198:142 8.41115e-05
5 *110:8 *396:29 8.16356e-05
*RES
1 *2871:Y *110:8 40.2579 
2 *110:8 *2872:B1 38 
*END

*D_NET *111 0.00447844
*CONN
*I *2877:B I *D sky130_fd_sc_hd__and4_1
*I *2872:X O *D sky130_fd_sc_hd__a21o_1
*CAP
1 *2877:B 0
2 *2872:X 0.000155803
3 *111:12 0.000676821
4 *111:8 0.000832623
5 *111:8 *344:22 4.8599e-05
6 *111:12 *3128:CLK 0.000204301
7 *111:12 *194:51 4.06408e-05
8 *111:12 *195:18 0.00027094
9 *111:12 *195:29 0.000380939
10 *111:12 *195:100 0.000662569
11 *111:12 *195:115 0.000357939
12 *111:12 *275:27 0.000137907
13 *111:12 *344:29 0.000709354
*RES
1 *2872:X *111:8 40.0507 
2 *111:8 *111:12 38.7386 
3 *111:12 *2877:B 23 
*END

*D_NET *112 0.000744099
*CONN
*I *2874:B1 I *D sky130_fd_sc_hd__a21o_1
*I *2873:Y O *D sky130_fd_sc_hd__o21ai_1
*CAP
1 *2874:B1 0
2 *2873:Y 0.000188931
3 *112:8 0.000188931
4 *112:8 *2874:A1 0.000137651
5 *112:8 *2874:A2 0.000107292
6 *112:8 *287:27 5.68958e-05
7 *112:8 *424:28 2.4754e-05
8 *112:8 *424:41 3.9644e-05
*RES
1 *2873:Y *112:8 27.4536 
2 *112:8 *2874:B1 23 
*END

*D_NET *113 0.000362737
*CONN
*I *2877:C I *D sky130_fd_sc_hd__and4_1
*I *2874:X O *D sky130_fd_sc_hd__a21o_1
*CAP
1 *2877:C 8.91051e-05
2 *2874:X 8.91051e-05
3 *2877:C *424:28 0.000184527
*RES
1 *2874:X *2877:C 48.0507 
*END

*D_NET *114 0.0010371
*CONN
*I *2876:B1 I *D sky130_fd_sc_hd__a21o_1
*I *2875:Y O *D sky130_fd_sc_hd__o21ai_1
*CAP
1 *2876:B1 0
2 *2875:Y 0.000386778
3 *114:12 0.000386778
4 *114:12 *153:16 0
5 *114:12 *398:33 0.000119431
6 *114:12 *430:26 0.00014411
*RES
1 *2875:Y *114:12 45.4157 
2 *114:12 *2876:B1 38 
*END

*D_NET *115 0.00195804
*CONN
*I *2877:D I *D sky130_fd_sc_hd__and4_1
*I *2876:X O *D sky130_fd_sc_hd__a21o_1
*CAP
1 *2877:D 0.000478555
2 *2876:X 0.000244209
3 *115:8 0.000722765
4 *2877:D *424:28 0.000512511
5 *115:8 *135:12 0
6 *115:8 *153:16 0
*RES
1 *2876:X *115:8 42.3707 
2 *115:8 *2877:D 48.15 
*END

*D_NET *116 0.00333853
*CONN
*I *2887:B I *D sky130_fd_sc_hd__and3_1
*I *2877:X O *D sky130_fd_sc_hd__and4_1
*CAP
1 *2887:B 0
2 *2877:X 0.000245933
3 *116:14 0.000987037
4 *116:8 0.00123297
5 *116:8 *424:28 0.000202663
6 *116:14 *2949:B 0.000216831
7 *116:14 *2963:A0 2.70366e-05
8 *116:14 *3202:A 0
9 *116:14 *3203:A 1.94812e-05
10 *116:14 *125:22 2.45549e-06
11 *116:14 *153:16 0
12 *116:14 *199:102 0
13 *116:14 *199:148 0
14 *116:14 *338:49 0.000243587
15 *116:14 *344:29 0
16 *116:14 *344:37 4.57742e-05
17 *116:14 *429:18 0.000114759
*RES
1 *2877:X *116:8 41.9564 
2 *116:8 *116:14 31.7993 
3 *116:14 *2887:B 23 
*END

*D_NET *117 0.000562477
*CONN
*I *2879:B1 I *D sky130_fd_sc_hd__a21o_1
*I *2878:Y O *D sky130_fd_sc_hd__o21ai_1
*CAP
1 *2879:B1 9.60193e-05
2 *2878:Y 9.60193e-05
3 *2879:B1 *2879:A1 1.86239e-05
4 *2879:B1 *2879:A2 7.61368e-05
5 *2879:B1 *397:14 7.61229e-06
6 *2879:B1 *429:61 0.000268065
*RES
1 *2878:Y *2879:B1 49.3764 
*END

*D_NET *118 0.0035059
*CONN
*I *2886:A I *D sky130_fd_sc_hd__and4_1
*I *2879:X O *D sky130_fd_sc_hd__a21o_1
*CAP
1 *2886:A 0
2 *2879:X 0.000845926
3 *118:16 0.00042749
4 *118:6 0.00127342
5 *118:6 *2960:A 1.84831e-05
6 *118:6 *427:22 0.000251988
7 *118:16 *2994:A 8.73569e-05
8 *118:16 *124:16 0.000184125
9 *118:16 *125:10 0.000143621
10 *118:16 *156:18 5.56356e-05
11 *118:16 *280:44 0.000193216
12 *118:16 *332:93 0
13 *118:16 *348:40 2.46399e-05
*RES
1 *2879:X *118:6 35.0557 
2 *118:6 *118:16 40.005 
3 *118:16 *2886:A 23 
*END

*D_NET *119 0.00233746
*CONN
*I *2881:B1 I *D sky130_fd_sc_hd__a21o_1
*I *2880:Y O *D sky130_fd_sc_hd__o21ai_1
*CAP
1 *2881:B1 3.29976e-05
2 *2880:Y 0.000423892
3 *119:10 0.00045689
4 *2881:B1 *2881:A2 4.08664e-05
5 *2881:B1 *320:14 9.66585e-05
6 *2881:B1 *425:49 5.5792e-05
7 *119:10 *138:10 7.42423e-05
8 *119:10 *273:76 0
9 *119:10 *324:10 0.000748117
10 *119:10 *393:12 0.00021738
11 *119:10 *425:20 5.50049e-05
12 *119:10 *425:57 0.000135616
*RES
1 *2880:Y *119:10 48.9786 
2 *119:10 *2881:B1 39.0979 
*END

*D_NET *120 0.00578942
*CONN
*I *2886:B I *D sky130_fd_sc_hd__and4_1
*I *2881:X O *D sky130_fd_sc_hd__a21o_1
*CAP
1 *2886:B 0
2 *2881:X 0.000121021
3 *120:18 0.00133896
4 *120:8 0.00145998
5 *120:8 *320:14 9.97435e-06
6 *120:8 *425:49 5.12254e-05
7 *120:18 *2886:C 0.000229801
8 *120:18 *2957:A0 0
9 *120:18 *2957:A1 0.000258998
10 *120:18 *3138:RESET_B 0.000136486
11 *120:18 *124:16 0.000271906
12 *120:18 *139:16 7.75329e-06
13 *120:18 *163:18 8.4047e-05
14 *120:18 *184:14 5.58694e-05
15 *120:18 *188:10 0
16 *120:18 *273:76 0.000111789
17 *120:18 *297:8 0
18 *120:18 *332:93 0
19 *120:18 *402:31 0.000400606
20 *120:18 *425:73 0.000755924
21 *120:18 *426:23 0
22 *120:18 *426:38 0.000471545
23 *120:18 *426:59 2.3529e-05
24 *55:8 *120:18 0
*RES
1 *2881:X *120:8 39.5743 
2 *120:8 *120:18 49.1993 
3 *120:18 *2886:B 23 
*END

*D_NET *121 0.000703672
*CONN
*I *2883:B1 I *D sky130_fd_sc_hd__a21o_1
*I *2882:Y O *D sky130_fd_sc_hd__o21ai_1
*CAP
1 *2883:B1 3.2207e-05
2 *2882:Y 0.000180239
3 *121:8 0.000212446
4 *2883:B1 *2883:A2 4.00259e-06
5 *2883:B1 *3199:A 1.24906e-05
6 *121:8 *394:18 0.000162254
7 *121:8 *394:34 3.76854e-05
8 *121:8 *426:59 6.23469e-05
*RES
1 *2882:Y *121:8 42.0186 
2 *121:8 *2883:B1 38.8493 
*END

*D_NET *122 0.000554197
*CONN
*I *2886:C I *D sky130_fd_sc_hd__and4_1
*I *2883:X O *D sky130_fd_sc_hd__a21o_1
*CAP
1 *2886:C 0.000150619
2 *2883:X 0.000150619
3 *2886:C *124:16 2.31591e-05
4 *120:18 *2886:C 0.000229801
*RES
1 *2883:X *2886:C 49.0036 
*END

*D_NET *123 0.00151853
*CONN
*I *2885:B1 I *D sky130_fd_sc_hd__a21o_1
*I *2884:Y O *D sky130_fd_sc_hd__o21ai_1
*CAP
1 *2885:B1 5.41722e-05
2 *2884:Y 0.00033898
3 *123:10 0.000393153
4 *2885:B1 *2885:A1 1.32314e-05
5 *2885:B1 *209:10 1.57571e-05
6 *2885:B1 *423:79 5.3304e-05
7 *123:10 *2884:A1 0.00015822
8 *123:10 *163:10 0
9 *123:10 *209:10 6.03737e-05
10 *123:10 *281:143 0.00017761
11 *123:10 *391:16 0.000218952
12 *123:10 *423:79 3.47781e-05
*RES
1 *2884:Y *123:10 45.1257 
2 *123:10 *2885:B1 39.0979 
*END

*D_NET *124 0.00427032
*CONN
*I *2886:D I *D sky130_fd_sc_hd__and4_1
*I *2885:X O *D sky130_fd_sc_hd__a21o_1
*CAP
1 *2886:D 0
2 *2885:X 0.00063241
3 *124:16 0.00039032
4 *124:6 0.00102273
5 *124:6 *163:18 0.000454987
6 *124:16 *2883:A2 5.3304e-05
7 *124:16 *3199:A 0.000234364
8 *124:16 *156:18 0.000134767
9 *124:16 *273:114 5.02657e-05
10 *124:16 *297:8 0.00016869
11 *124:16 *394:18 1.59094e-05
12 *124:16 *426:38 0.000598607
13 *124:16 *426:59 3.47781e-05
14 *2886:C *124:16 2.31591e-05
15 *118:16 *124:16 0.000184125
16 *120:18 *124:16 0.000271906
*RES
1 *2885:X *124:6 36.9614 
2 *124:6 *124:16 44.1271 
3 *124:16 *2886:D 23 
*END

*D_NET *125 0.00539774
*CONN
*I *2887:C I *D sky130_fd_sc_hd__and3_1
*I *2886:X O *D sky130_fd_sc_hd__and4_1
*CAP
1 *2887:C 0
2 *2886:X 0.000424466
3 *125:22 0.00120309
4 *125:10 0.00162756
5 *125:10 *3118:CLK 6.16531e-05
6 *125:10 *280:10 0.000354769
7 *125:10 *280:44 0.000225275
8 *125:10 *332:93 0
9 *125:22 *3141:RESET_B 5.44014e-05
10 *125:22 *126:12 0.00032346
11 *125:22 *280:33 0.000784338
12 *125:22 *405:8 5.3304e-05
13 *125:22 *429:43 0.000139352
14 *116:14 *125:22 2.45549e-06
15 *118:16 *125:10 0.000143621
*RES
1 *2886:X *125:10 47.8186 
2 *125:10 *125:22 36.1286 
3 *125:22 *2887:C 23 
*END

*D_NET *126 0.00194904
*CONN
*I *2888:A I *D sky130_fd_sc_hd__buf_1
*I *2887:X O *D sky130_fd_sc_hd__and3_1
*CAP
1 *2888:A 0.000250049
2 *2887:X 0.000403397
3 *126:12 0.000653447
4 *2888:A *335:10 3.16665e-05
5 *126:12 *223:10 0
6 *126:12 *280:33 0.000153145
7 *126:12 *327:27 0.000133879
8 *125:22 *126:12 0.00032346
*RES
1 *2887:X *126:12 48.8129 
2 *126:12 *2888:A 41.9564 
*END

*D_NET *127 0.00030564
*CONN
*I *2890:B1 I *D sky130_fd_sc_hd__a21o_1
*I *2889:Y O *D sky130_fd_sc_hd__o21ai_1
*CAP
1 *2890:B1 0
2 *2889:Y 8.26802e-05
3 *127:8 8.26802e-05
4 *127:8 *194:104 0.00014028
*RES
1 *2889:Y *127:8 39.9057 
2 *127:8 *2890:B1 38 
*END

*D_NET *128 0.00581455
*CONN
*I *2897:A I *D sky130_fd_sc_hd__and4_1
*I *2890:X O *D sky130_fd_sc_hd__a21o_1
*CAP
1 *2897:A 0
2 *2890:X 0.000431144
3 *128:14 0.00135042
4 *128:8 0.00178157
5 *128:8 *277:17 9.28723e-05
6 *128:8 *277:30 1.98624e-05
7 *128:14 *2897:C 2.95526e-05
8 *128:14 *3128:RESET_B 0.000108682
9 *128:14 *194:93 0.00100956
10 *128:14 *195:100 0
11 *128:14 *195:115 0
12 *128:14 *277:40 0.000183589
13 *128:14 *287:27 6.1695e-05
14 *128:14 *343:31 8.85189e-05
15 *38:8 *128:14 8.62876e-05
16 *40:10 *128:14 8.4047e-05
17 *45:8 *128:14 8.85189e-05
18 *109:14 *128:14 0.000398229
*RES
1 *2890:X *128:8 43.8621 
2 *128:8 *128:14 45.3464 
3 *128:14 *2897:A 23 
*END

*D_NET *129 0.000326805
*CONN
*I *2892:B1 I *D sky130_fd_sc_hd__a21o_1
*I *2891:Y O *D sky130_fd_sc_hd__o21ai_1
*CAP
1 *2892:B1 0
2 *2891:Y 0.000123514
3 *129:8 0.000123514
4 *129:8 *428:46 5.58975e-06
5 *129:8 *428:50 7.41877e-05
*RES
1 *2891:Y *129:8 40.2579 
2 *129:8 *2892:B1 38 
*END

*D_NET *130 0.00207462
*CONN
*I *2897:B I *D sky130_fd_sc_hd__and4_1
*I *2892:X O *D sky130_fd_sc_hd__a21o_1
*CAP
1 *2897:B 0
2 *2892:X 0.000168207
3 *130:12 0.000559077
4 *130:8 0.000727284
5 *130:8 *344:22 2.13733e-05
6 *130:8 *396:21 0.000143535
7 *130:12 *3128:RESET_B 1.13812e-05
8 *130:12 *194:66 0.000200004
9 *130:12 *194:93 4.96024e-05
10 *130:12 *198:142 0.000179118
11 *130:12 *198:152 1.50409e-05
*RES
1 *2892:X *130:8 40.5271 
2 *130:8 *130:12 27.47 
3 *130:12 *2897:B 23 
*END

*D_NET *131 0.00209873
*CONN
*I *2894:B1 I *D sky130_fd_sc_hd__a21o_1
*I *2893:Y O *D sky130_fd_sc_hd__o21ai_1
*CAP
1 *2894:B1 0.000243695
2 *2893:Y 0.000356032
3 *131:10 0.000599727
4 *2894:B1 *3005:A0 5.2273e-05
5 *2894:B1 *400:20 0.000228967
6 *2894:B1 *424:58 2.03369e-05
7 *131:10 *3006:A 0.000181125
8 *131:10 *3231:A 9.00923e-05
9 *131:10 *322:34 0.000163243
10 *131:10 *400:37 0.000163243
*RES
1 *2893:Y *131:10 44.2143 
2 *131:10 *2894:B1 42.9507 
*END

*D_NET *132 0.000550984
*CONN
*I *2897:C I *D sky130_fd_sc_hd__and4_1
*I *2894:X O *D sky130_fd_sc_hd__a21o_1
*CAP
1 *2897:C 0.000257628
2 *2894:X 0.000257628
3 *2897:C *3128:RESET_B 6.17437e-06
4 *128:14 *2897:C 2.95526e-05
*RES
1 *2894:X *2897:C 49.9564 
*END

*D_NET *133 0.00196633
*CONN
*I *2896:B1 I *D sky130_fd_sc_hd__a21o_1
*I *2895:Y O *D sky130_fd_sc_hd__o21ai_1
*CAP
1 *2896:B1 0
2 *2895:Y 0.000459974
3 *133:10 0.000459974
4 *133:10 *2895:A2 5.50106e-05
5 *133:10 *198:33 0.000584713
6 *133:10 *207:37 0.000113302
7 *133:10 *278:10 0.000105165
8 *133:10 *278:16 8.51329e-05
9 *133:10 *278:92 0.000103062
*RES
1 *2895:Y *133:10 48.8957 
2 *133:10 *2896:B1 38 
*END

*D_NET *134 0.0055277
*CONN
*I *2897:D I *D sky130_fd_sc_hd__and4_1
*I *2896:X O *D sky130_fd_sc_hd__a21o_1
*CAP
1 *2897:D 0.000395885
2 *2896:X 0.000858024
3 *134:12 0.00071008
4 *134:6 0.00117222
5 *2897:D *3128:RESET_B 0.000219479
6 *2897:D *3134:CLK 0.000189857
7 *2897:D *135:6 0.000567426
8 *2897:D *194:82 1.40533e-05
9 *2897:D *275:31 0.00035847
10 *134:6 *2916:A1 0.000100477
11 *134:6 *2916:B1 8.88316e-05
12 *134:6 *199:42 0.000175121
13 *134:12 *3134:RESET_B 0.000533254
14 *134:12 *153:16 1.49305e-05
15 *134:12 *430:26 0
16 *22:17 *134:12 0.000129592
*RES
1 *2896:X *134:6 35.0557 
2 *134:6 *134:12 37.8921 
3 *134:12 *2897:D 36.0293 
*END

*D_NET *135 0.004177
*CONN
*I *2907:B I *D sky130_fd_sc_hd__and3_1
*I *2897:X O *D sky130_fd_sc_hd__and4_1
*CAP
1 *2907:B 0
2 *2897:X 0.00100524
3 *135:12 0.000646456
4 *135:6 0.0016517
5 *135:6 *194:82 2.23691e-05
6 *135:12 *3001:A1 2.76611e-06
7 *135:12 *153:16 0
8 *135:12 *192:8 0
9 *135:12 *327:10 0
10 *135:12 *398:23 4.73689e-05
11 *135:12 *398:33 0.000116314
12 *135:12 *430:26 0.000117352
13 *135:12 *430:81 0
14 *2897:D *135:6 0.000567426
15 *115:8 *135:12 0
*RES
1 *2897:X *135:6 37.4379 
2 *135:6 *135:12 42.47 
3 *135:12 *2907:B 23 
*END

*D_NET *136 0.000626205
*CONN
*I *2899:B1 I *D sky130_fd_sc_hd__a21o_1
*I *2898:Y O *D sky130_fd_sc_hd__o21ai_1
*CAP
1 *2899:B1 7.34766e-05
2 *2898:Y 8.09561e-05
3 *136:8 0.000154433
4 *2899:B1 *163:24 0.000102093
5 *2899:B1 *184:14 0.000102093
6 *136:8 *198:33 0.000113153
7 *136:8 *348:48 0
*RES
1 *2898:Y *136:8 39.5536 
2 *136:8 *2899:B1 40.5479 
*END

*D_NET *137 0.00237492
*CONN
*I *2906:A I *D sky130_fd_sc_hd__and4_1
*I *2899:X O *D sky130_fd_sc_hd__a21o_1
*CAP
1 *2906:A 1.14602e-05
2 *2899:X 0.000664678
3 *137:10 0.000676138
4 *2906:A *2906:C 5.56356e-05
5 *2906:A *139:16 5.73309e-05
6 *137:10 *3118:CLK 6.49713e-05
7 *137:10 *141:10 0
8 *137:10 *184:14 0.000655835
9 *137:10 *199:139 2.96369e-05
10 *137:10 *348:48 2.10889e-05
11 *35:10 *137:10 0.000138143
*RES
1 *2899:X *137:10 49.6621 
2 *137:10 *2906:A 38.6214 
*END

*D_NET *138 0.000805655
*CONN
*I *2901:B1 I *D sky130_fd_sc_hd__a21o_1
*I *2900:Y O *D sky130_fd_sc_hd__o21ai_1
*CAP
1 *2901:B1 0
2 *2900:Y 0.000308744
3 *138:10 0.000308744
4 *138:10 *278:102 9.66668e-05
5 *138:10 *296:27 9.64634e-06
6 *3137:D *138:10 7.61229e-06
7 *119:10 *138:10 7.42423e-05
*RES
1 *2900:Y *138:10 42.785 
2 *138:10 *2901:B1 38 
*END

*D_NET *139 0.00424631
*CONN
*I *2906:B I *D sky130_fd_sc_hd__and4_1
*I *2901:X O *D sky130_fd_sc_hd__a21o_1
*CAP
1 *2906:B 0
2 *2901:X 0
3 *139:16 0.00101914
4 *139:6 0.00101914
5 *139:16 *2906:C 0.00021337
6 *139:16 *2906:D 9.43246e-05
7 *139:16 *2957:A0 5.50049e-05
8 *139:16 *2957:A1 0.000108033
9 *139:16 *3009:A1 6.51214e-05
10 *139:16 *188:10 0.00019063
11 *139:16 *273:76 0.000150341
12 *139:16 *324:10 0
13 *139:16 *324:18 0.000336732
14 *139:16 *324:31 0
15 *139:16 *332:49 0.000135557
16 *139:16 *402:31 0.000317988
17 *139:16 *425:45 7.78223e-05
18 *139:16 *425:57 4.485e-05
19 *139:16 *425:73 0.000353178
20 *2906:A *139:16 5.73309e-05
21 *55:8 *139:16 0
22 *120:18 *139:16 7.75329e-06
*RES
1 *2901:X *139:6 38 
2 *139:6 *139:16 41.0586 
3 *139:16 *2906:B 23 
*END

*D_NET *140 0.000397216
*CONN
*I *2903:B1 I *D sky130_fd_sc_hd__a21o_1
*I *2902:Y O *D sky130_fd_sc_hd__o21ai_1
*CAP
1 *2903:B1 8.03117e-05
2 *2902:Y 8.03117e-05
3 *2903:B1 *2902:A2 1.08287e-05
4 *2903:B1 *2903:A2 4.00259e-06
5 *2903:B1 *402:31 7.88512e-05
6 *2903:B1 *426:32 8.62044e-05
7 *2903:B1 *426:38 5.67058e-05
*RES
1 *2902:Y *2903:B1 48.5479 
*END

*D_NET *141 0.00209615
*CONN
*I *2906:C I *D sky130_fd_sc_hd__and4_1
*I *2903:X O *D sky130_fd_sc_hd__a21o_1
*CAP
1 *2906:C 0.000296054
2 *2903:X 0.000352178
3 *141:10 0.000648232
4 *2906:C *2906:D 5.14746e-06
5 *141:10 *184:14 0.000229801
6 *141:10 *188:10 0.000295728
7 *2906:A *2906:C 5.56356e-05
8 *35:10 *141:10 0
9 *137:10 *141:10 0
10 *139:16 *2906:C 0.00021337
*RES
1 *2903:X *141:10 44.5457 
2 *141:10 *2906:C 42.4329 
*END

*D_NET *142 0.000927712
*CONN
*I *2905:B1 I *D sky130_fd_sc_hd__a21o_1
*I *2904:Y O *D sky130_fd_sc_hd__o21ai_1
*CAP
1 *2905:B1 0.000285477
2 *2904:Y 3.89734e-05
3 *142:8 0.000324451
4 *2905:B1 *2905:A2 2.93747e-05
5 *2905:B1 *3003:A1 5.50106e-05
6 *2905:B1 *399:16 2.18506e-05
7 *142:8 *3003:A1 8.62876e-05
8 *142:8 *351:25 8.62876e-05
*RES
1 *2904:Y *142:8 39.2014 
2 *142:8 *2905:B1 41.8529 
*END

*D_NET *143 0.00603172
*CONN
*I *2906:D I *D sky130_fd_sc_hd__and4_1
*I *2905:X O *D sky130_fd_sc_hd__a21o_1
*CAP
1 *2906:D 0.00129933
2 *2905:X 0.00103052
3 *143:12 0.00232985
4 *2906:D *3009:A1 0.000118673
5 *2906:D *220:8 0.000562694
6 *2906:D *332:60 0.000150267
7 *143:12 *2953:A0 4.07999e-05
8 *143:12 *332:60 0.00024663
9 *143:12 *332:70 5.50106e-05
10 *2906:C *2906:D 5.14746e-06
11 *34:10 *143:12 9.84794e-05
12 *139:16 *2906:D 9.43246e-05
*RES
1 *2905:X *143:12 42.2643 
2 *143:12 *2906:D 42.4507 
*END

*D_NET *144 0.0019681
*CONN
*I *2907:C I *D sky130_fd_sc_hd__and3_1
*I *2906:X O *D sky130_fd_sc_hd__and4_1
*CAP
1 *2907:C 0
2 *2906:X 0.000802698
3 *144:6 0.000802698
4 *144:6 *2965:A1 0.00010018
5 *144:6 *145:8 0.000262519
*RES
1 *2906:X *144:6 37.7486 
2 *144:6 *2907:C 23 
*END

*D_NET *145 0.00120302
*CONN
*I *2908:A I *D sky130_fd_sc_hd__buf_1
*I *2907:X O *D sky130_fd_sc_hd__and3_1
*CAP
1 *2908:A 0
2 *2907:X 0.000442747
3 *145:8 0.000442747
4 *145:8 *336:8 5.50106e-05
5 *144:6 *145:8 0.000262519
*RES
1 *2907:X *145:8 31.6171 
2 *145:8 *2908:A 23 
*END

*D_NET *146 0.000797546
*CONN
*I *2910:B1 I *D sky130_fd_sc_hd__a21o_1
*I *2909:Y O *D sky130_fd_sc_hd__o21ai_1
*CAP
1 *2910:B1 6.86503e-05
2 *2909:Y 9.34498e-05
3 *146:8 0.0001621
4 *2910:B1 *3027:A0 0.000182826
5 *2910:B1 *318:24 2.32004e-05
6 *2910:B1 *325:41 0.000140259
7 *146:8 *3043:A1 0.000115615
8 *146:8 *276:70 0
9 *146:8 *325:31 1.14452e-05
*RES
1 *2909:Y *146:8 39.9057 
2 *146:8 *2910:B1 40.5479 
*END

*D_NET *147 0.00285013
*CONN
*I *2917:A I *D sky130_fd_sc_hd__and4_1
*I *2910:X O *D sky130_fd_sc_hd__a21o_1
*CAP
1 *2917:A 0
2 *2910:X 0
3 *147:10 0.00100585
4 *147:6 0.00100585
5 *147:10 *3176:RESET_B 0
6 *147:10 *207:133 0.000742052
7 *147:10 *258:8 8.62783e-05
8 *147:10 *276:10 0
9 *147:10 *276:12 0
10 *147:10 *284:14 0
11 *147:10 *325:31 1.0092e-05
*RES
1 *2910:X *147:6 38 
2 *147:6 *147:10 36.2736 
3 *147:10 *2917:A 23 
*END

*D_NET *148 0.000884629
*CONN
*I *2912:B1 I *D sky130_fd_sc_hd__a21o_1
*I *2911:Y O *D sky130_fd_sc_hd__o21ai_1
*CAP
1 *2912:B1 0
2 *2911:Y 0.000267307
3 *148:10 0.000267307
4 *148:10 *2911:A1 1.57571e-05
5 *148:10 *2911:A2 5.70419e-05
6 *148:10 *168:12 0
7 *148:10 *207:105 9.84851e-05
8 *148:10 *207:118 6.68793e-05
9 *148:10 *428:109 0.000111852
*RES
1 *2911:Y *148:10 42.9093 
2 *148:10 *2912:B1 38 
*END

*D_NET *149 0.00410116
*CONN
*I *2917:B I *D sky130_fd_sc_hd__and4_1
*I *2912:X O *D sky130_fd_sc_hd__a21o_1
*CAP
1 *2917:B 0
2 *2912:X 0
3 *149:12 0.00132196
4 *149:6 0.00132196
5 *149:12 *2933:B1 9.41656e-05
6 *149:12 *3239:A 3.71198e-05
7 *149:12 *153:26 2.64616e-05
8 *149:12 *166:8 0
9 *149:12 *168:12 0
10 *149:12 *206:48 6.16531e-05
11 *149:12 *207:118 0
12 *149:12 *273:26 0.000199382
13 *149:12 *362:24 0.000837089
14 *149:12 *424:107 0.000201371
*RES
1 *2912:X *149:6 38 
2 *149:6 *149:12 43.8343 
3 *149:12 *2917:B 23 
*END

*D_NET *150 0.000341149
*CONN
*I *2914:B1 I *D sky130_fd_sc_hd__a21o_1
*I *2913:Y O *D sky130_fd_sc_hd__o21ai_1
*CAP
1 *2914:B1 7.27943e-05
2 *2913:Y 7.27943e-05
3 *2914:B1 *2914:A1 0.000140556
4 *2914:B1 *151:10 5.50049e-05
*RES
1 *2913:Y *2914:B1 48.0714 
*END

*D_NET *151 0.00061155
*CONN
*I *2917:C I *D sky130_fd_sc_hd__and4_1
*I *2914:X O *D sky130_fd_sc_hd__a21o_1
*CAP
1 *2917:C 0
2 *2914:X 0.000168611
3 *151:10 0.000168611
4 *151:10 *2913:A1 6.17437e-06
5 *151:10 *2913:B1 8.62876e-05
6 *151:10 *2914:A1 4.05745e-05
7 *151:10 *362:24 8.62876e-05
8 *2914:B1 *151:10 5.50049e-05
*RES
1 *2914:X *151:10 40.7757 
2 *151:10 *2917:C 38 
*END

*D_NET *152 0.00172104
*CONN
*I *2916:B1 I *D sky130_fd_sc_hd__a21o_1
*I *2915:Y O *D sky130_fd_sc_hd__o21ai_1
*CAP
1 *2916:B1 0.00013918
2 *2915:Y 0.000350864
3 *152:10 0.000490044
4 *2916:B1 *2916:A1 4.98295e-05
5 *2916:B1 *199:42 0.000356972
6 *152:10 *2915:B1 5.37348e-06
7 *152:10 *3001:A0 8.68145e-05
8 *152:10 *3049:A1 1.12487e-05
9 *152:10 *327:10 0
10 *152:10 *414:20 0.000141879
11 *134:6 *2916:B1 8.88316e-05
*RES
1 *2915:Y *152:10 43.3443 
2 *152:10 *2916:B1 42.4536 
*END

*D_NET *153 0.00950704
*CONN
*I *2917:D I *D sky130_fd_sc_hd__and4_1
*I *2916:X O *D sky130_fd_sc_hd__a21o_1
*CAP
1 *2917:D 0
2 *2916:X 4.32251e-05
3 *153:26 0.00207453
4 *153:16 0.00355606
5 *153:8 0.00152476
6 *153:8 *199:42 1.43261e-05
7 *153:16 *2907:A 0
8 *153:16 *3124:RESET_B 9.54129e-05
9 *153:16 *3134:RESET_B 0.000198471
10 *153:16 *3202:A 8.83205e-05
11 *153:16 *172:20 0.000353085
12 *153:16 *194:74 0.000113244
13 *153:16 *199:110 0.000243247
14 *153:16 *283:8 5.50049e-05
15 *153:16 *336:29 9.87533e-05
16 *153:16 *342:24 6.68822e-05
17 *153:16 *429:18 6.9805e-05
18 *153:16 *430:26 0
19 *153:26 *2976:A 2.18506e-05
20 *153:26 *3160:RESET_B 0.000291067
21 *153:26 *277:54 9.41704e-05
22 *153:26 *287:6 0.000180476
23 *153:26 *287:27 4.65096e-05
24 *3124:D *153:16 3.71251e-05
25 *3124:D *153:26 7.44161e-06
26 *3160:D *153:26 2.30292e-05
27 *3191:A *153:16 4.93359e-05
28 *22:17 *153:16 0.00011951
29 *114:12 *153:16 0
30 *115:8 *153:16 0
31 *116:14 *153:16 0
32 *134:12 *153:16 1.49305e-05
33 *135:12 *153:16 0
34 *149:12 *153:26 2.64616e-05
*RES
1 *2916:X *153:8 38.6214 
2 *153:8 *153:16 49.4893 
3 *153:16 *153:26 30.7193 
4 *153:26 *2917:D 23 
*END

*D_NET *154 0.00142548
*CONN
*I *2927:B I *D sky130_fd_sc_hd__and3_1
*I *2917:X O *D sky130_fd_sc_hd__and4_1
*CAP
1 *2927:B 0.000299334
2 *2917:X 0.000208074
3 *154:8 0.000507407
4 *2927:B *2927:C 8.91468e-07
5 *2927:B *2980:A1 3.27749e-06
6 *2927:B *284:29 4.33731e-05
7 *154:8 *2913:B1 2.72055e-05
8 *154:8 *3243:A 4.23714e-05
9 *154:8 *166:8 9.04848e-05
10 *154:8 *207:133 0
11 *154:8 *284:29 0.000120396
12 *154:8 *318:36 1.22906e-05
13 *154:8 *362:24 7.03766e-05
*RES
1 *2917:X *154:8 43.7793 
2 *154:8 *2927:B 41.48 
*END

*D_NET *155 0.00125263
*CONN
*I *2919:B1 I *D sky130_fd_sc_hd__a21o_1
*I *2918:Y O *D sky130_fd_sc_hd__o21ai_1
*CAP
1 *2919:B1 9.97398e-05
2 *2918:Y 0.000280706
3 *155:10 0.000380446
4 *2919:B1 *2919:A1 7.61229e-06
5 *2919:B1 *3031:S 1.37232e-05
6 *2919:B1 *203:125 3.16665e-05
7 *155:10 *198:33 0.000110913
8 *155:10 *203:100 1.19692e-05
9 *155:10 *280:71 0.000315852
10 *155:10 *413:12 0
*RES
1 *2918:Y *155:10 43.0336 
2 *155:10 *2919:B1 39.9471 
*END

*D_NET *156 0.00598898
*CONN
*I *2926:A I *D sky130_fd_sc_hd__and4_1
*I *2919:X O *D sky130_fd_sc_hd__a21o_1
*CAP
1 *2926:A 0
2 *2919:X 0.000327847
3 *156:18 0.00164167
4 *156:8 0.00196952
5 *156:8 *3119:CLK 5.50106e-05
6 *156:8 *203:125 0.000465716
7 *156:8 *427:14 4.67225e-05
8 *156:18 *2883:A2 9.41704e-05
9 *156:18 *2926:B 5.41288e-05
10 *156:18 *2926:C 6.64697e-05
11 *156:18 *2926:D 3.53115e-05
12 *156:18 *3199:A 0.000130303
13 *156:18 *163:10 0.00014196
14 *156:18 *281:10 0.000158359
15 *156:18 *281:113 2.31797e-05
16 *156:18 *289:14 0
17 *156:18 *332:93 0.000472332
18 *156:18 *348:70 9.89966e-05
19 *156:18 *348:77 1.68817e-05
20 *156:18 *426:59 0
21 *118:16 *156:18 5.56356e-05
22 *124:16 *156:18 0.000134767
*RES
1 *2919:X *156:8 47.1971 
2 *156:8 *156:18 46.4029 
3 *156:18 *2926:A 23 
*END

*D_NET *157 0.000562023
*CONN
*I *2921:B1 I *D sky130_fd_sc_hd__a21o_1
*I *2920:Y O *D sky130_fd_sc_hd__o21ai_1
*CAP
1 *2921:B1 0
2 *2920:Y 0.000157765
3 *157:10 0.000157765
4 *157:10 *3153:CLK 0.000102971
5 *157:10 *417:24 0.000112396
6 *157:10 *425:10 1.16455e-05
7 *157:10 *425:139 1.94812e-05
*RES
1 *2920:Y *157:10 41.0036 
2 *157:10 *2921:B1 38 
*END

*D_NET *158 0.00594602
*CONN
*I *2926:B I *D sky130_fd_sc_hd__and4_1
*I *2921:X O *D sky130_fd_sc_hd__a21o_1
*CAP
1 *2926:B 0.000154115
2 *2921:X 4.89613e-05
3 *158:10 0.00161287
4 *158:8 0.00150771
5 *2926:B *2926:D 0.000397596
6 *158:8 *323:32 2.95526e-05
7 *158:10 *2884:B1 0.000574564
8 *158:10 *3225:A 0.000276784
9 *158:10 *162:8 0
10 *158:10 *177:12 0
11 *158:10 *195:80 0.000218696
12 *158:10 *195:93 0.000322736
13 *158:10 *346:67 0
14 *158:10 *425:10 0.000748312
15 *156:18 *2926:B 5.41288e-05
*RES
1 *2921:X *158:8 38.6214 
2 *158:8 *158:10 36.0636 
3 *158:10 *2926:B 42.4329 
*END

*D_NET *159 0.000899465
*CONN
*I *2923:B1 I *D sky130_fd_sc_hd__a21o_1
*I *2922:Y O *D sky130_fd_sc_hd__o21ai_1
*CAP
1 *2923:B1 1.60486e-05
2 *2922:Y 0.000313922
3 *159:8 0.000329971
4 *2923:B1 *2923:A2 0.00010018
5 *2923:B1 *228:10 9.84794e-05
6 *159:8 *2922:A2 0
7 *159:8 *236:8 4.08641e-05
8 *159:8 *410:12 0
9 *159:8 *426:90 0
10 *159:8 *426:109 0
*RES
1 *2922:Y *159:8 43.075 
2 *159:8 *2923:B1 39.0979 
*END

*D_NET *160 0.00192261
*CONN
*I *2926:C I *D sky130_fd_sc_hd__and4_1
*I *2923:X O *D sky130_fd_sc_hd__a21o_1
*CAP
1 *2926:C 0.000191304
2 *2923:X 0.000495315
3 *160:10 0.000686619
4 *2926:C *2926:D 5.67058e-05
5 *160:10 *2923:A2 0.000192342
6 *160:10 *3025:A0 2.193e-05
7 *160:10 *281:113 1.0092e-05
8 *160:10 *324:44 0.000201828
9 *156:18 *2926:C 6.64697e-05
*RES
1 *2923:X *160:10 47.3629 
2 *160:10 *2926:C 41.0036 
*END

*D_NET *161 0.00203057
*CONN
*I *2925:B1 I *D sky130_fd_sc_hd__a21o_1
*I *2924:Y O *D sky130_fd_sc_hd__o21ai_1
*CAP
1 *2925:B1 2.71027e-05
2 *2924:Y 0.000461209
3 *161:10 0.000488312
4 *2925:B1 *281:143 9.84794e-05
5 *2925:B1 *347:18 3.71251e-05
6 *161:10 *3019:A0 0.000207695
7 *161:10 *3019:A1 0.000180218
8 *161:10 *3020:A 0.000143655
9 *161:10 *347:18 5.26308e-05
10 *161:10 *407:14 0.000102389
11 *161:10 *423:29 4.92689e-05
12 *161:10 *423:31 0.000111852
13 *161:10 *423:63 1.39317e-05
14 *60:10 *161:10 5.67058e-05
*RES
1 *2924:Y *161:10 48.5021 
2 *161:10 *2925:B1 39.0979 
*END

*D_NET *162 0.00181998
*CONN
*I *2926:D I *D sky130_fd_sc_hd__and4_1
*I *2925:X O *D sky130_fd_sc_hd__a21o_1
*CAP
1 *2926:D 0.000516628
2 *2925:X 0.000142832
3 *162:8 0.00065946
4 *162:8 *347:18 1.14452e-05
5 *162:8 *423:29 0
6 *2926:B *2926:D 0.000397596
7 *2926:C *2926:D 5.67058e-05
8 *156:18 *2926:D 3.53115e-05
9 *158:10 *162:8 0
*RES
1 *2925:X *162:8 40.61 
2 *162:8 *2926:D 48.15 
*END

*D_NET *163 0.0149291
*CONN
*I *2927:C I *D sky130_fd_sc_hd__and3_1
*I *2926:X O *D sky130_fd_sc_hd__and4_1
*CAP
1 *2927:C 2.78201e-05
2 *2926:X 0.000433466
3 *163:32 0.00156889
4 *163:24 0.00379655
5 *163:18 0.00332047
6 *163:10 0.00149846
7 *163:10 *2884:A1 0
8 *163:10 *3159:CLK 0.000257898
9 *163:10 *177:12 0
10 *163:10 *209:10 5.93278e-05
11 *163:10 *281:113 0.000197479
12 *163:10 *281:115 0.000164291
13 *163:10 *423:79 0
14 *163:24 *2949:A 0.0001164
15 *163:24 *2958:A 5.40876e-05
16 *163:24 *3015:A0 5.91541e-05
17 *163:24 *3015:A1 9.84794e-05
18 *163:24 *3241:A 5.50106e-05
19 *163:24 *184:14 0.000289369
20 *163:24 *199:118 0.000109046
21 *163:24 *338:49 9.5877e-05
22 *163:24 *355:10 0.000352822
23 *163:24 *402:31 3.7122e-06
24 *163:24 *429:35 0.000306338
25 *163:32 *2975:S 4.66047e-05
26 *163:32 *3085:S 7.88828e-05
27 *163:32 *173:10 0
28 *163:32 *199:162 7.15126e-05
29 *163:32 *202:42 0.00035517
30 *163:32 *337:18 0.000539293
31 *163:32 *355:10 0.00010018
32 *163:32 *428:27 8.85189e-05
33 *2899:B1 *163:24 0.000102093
34 *2927:B *2927:C 8.91468e-07
35 *120:18 *163:18 8.4047e-05
36 *123:10 *163:10 0
37 *124:6 *163:18 0.000454987
38 *156:18 *163:10 0.00014196
*RES
1 *2926:X *163:10 48.1707 
2 *163:10 *163:18 45.6393 
3 *163:18 *163:24 48.5157 
4 *163:24 *163:32 44.9529 
5 *163:32 *2927:C 38.2796 
*END

*D_NET *164 0.000173036
*CONN
*I *2928:A I *D sky130_fd_sc_hd__buf_1
*I *2927:X O *D sky130_fd_sc_hd__and3_1
*CAP
1 *2928:A 8.65178e-05
2 *2927:X 8.65178e-05
*RES
1 *2927:X *2928:A 47.4707 
*END

*D_NET *165 0.00100888
*CONN
*I *2930:B1 I *D sky130_fd_sc_hd__a21o_1
*I *2929:Y O *D sky130_fd_sc_hd__o21ai_1
*CAP
1 *2930:B1 0
2 *2929:Y 0.000362334
3 *165:8 0.000362334
4 *165:8 *2929:A2 0.000128527
5 *165:8 *2930:A2 5.67058e-05
6 *165:8 *3043:A1 0
7 *165:8 *285:23 5.50106e-05
8 *165:8 *419:17 4.39725e-05
*RES
1 *2929:Y *165:8 29.8357 
2 *165:8 *2930:B1 23 
*END

*D_NET *166 0.00645342
*CONN
*I *2937:A I *D sky130_fd_sc_hd__and4_1
*I *2930:X O *D sky130_fd_sc_hd__a21o_1
*CAP
1 *2937:A 8.81462e-05
2 *2930:X 0
3 *166:8 0.00155557
4 *166:6 0.00146743
5 *2937:A *311:8 5.56279e-05
6 *166:8 *2909:A1 0.000101466
7 *166:8 *2933:B1 1.01436e-05
8 *166:8 *2961:A1 0.000154802
9 *166:8 *3239:A 0.000136486
10 *166:8 *206:48 1.86869e-05
11 *166:8 *207:149 0
12 *166:8 *208:8 8.78864e-05
13 *166:8 *273:50 5.07359e-05
14 *166:8 *318:36 0.000559124
15 *166:8 *332:10 0.00121437
16 *166:8 *332:20 0.000296017
17 *166:8 *357:8 8.62876e-05
18 *166:8 *362:24 0
19 *166:8 *428:27 0.000480152
20 *149:12 *166:8 0
21 *154:8 *166:8 9.04848e-05
*RES
1 *2930:X *166:6 38 
2 *166:6 *166:8 40.9936 
3 *166:8 *2937:A 39.595 
*END

*D_NET *167 0.000699755
*CONN
*I *2932:B1 I *D sky130_fd_sc_hd__a21o_1
*I *2931:Y O *D sky130_fd_sc_hd__o21ai_1
*CAP
1 *2932:B1 0
2 *2931:Y 0.000270629
3 *167:10 0.000270629
4 *167:10 *2931:A1 0
5 *167:10 *2931:A2 6.51763e-05
6 *167:10 *3045:S 3.22879e-05
7 *167:10 *420:14 5.08899e-05
8 *167:10 *428:109 1.01436e-05
*RES
1 *2931:Y *167:10 42.785 
2 *167:10 *2932:B1 38 
*END

*D_NET *168 0.00239841
*CONN
*I *2937:B I *D sky130_fd_sc_hd__and4_1
*I *2932:X O *D sky130_fd_sc_hd__a21o_1
*CAP
1 *2937:B 0
2 *2932:X 6.52883e-05
3 *168:12 0.000702807
4 *168:8 0.000768095
5 *168:8 *207:105 0.00010018
6 *168:12 *2931:A1 2.76611e-06
7 *168:12 *2933:B1 0.000212901
8 *168:12 *170:10 0.000169674
9 *168:12 *207:118 0
10 *168:12 *273:26 7.08713e-05
11 *168:12 *428:27 0.000266208
12 *168:12 *428:29 3.96156e-05
13 *168:12 *428:109 0
14 *148:10 *168:12 0
15 *149:12 *168:12 0
*RES
1 *2932:X *168:8 39.0979 
2 *168:8 *168:12 31.3436 
3 *168:12 *2937:B 23 
*END

*D_NET *169 0.000342534
*CONN
*I *2934:B1 I *D sky130_fd_sc_hd__a21o_1
*I *2933:Y O *D sky130_fd_sc_hd__o21ai_1
*CAP
1 *2934:B1 5.22122e-05
2 *2933:Y 5.22122e-05
3 *2934:B1 *2933:A2 0.000154189
4 *2934:B1 *2933:B1 1.35999e-05
5 *2934:B1 *2934:A1 7.61229e-06
6 *2934:B1 *424:90 6.27077e-05
*RES
1 *2933:Y *2934:B1 48.0714 
*END

*D_NET *170 0.000939431
*CONN
*I *2937:C I *D sky130_fd_sc_hd__and4_1
*I *2934:X O *D sky130_fd_sc_hd__a21o_1
*CAP
1 *2937:C 0
2 *2934:X 0.000245664
3 *170:10 0.000245664
4 *170:10 *424:81 1.47795e-05
5 *170:10 *424:90 0.000178517
6 *170:10 *428:27 8.51329e-05
7 *168:12 *170:10 0.000169674
*RES
1 *2934:X *170:10 42.785 
2 *170:10 *2937:C 38 
*END

*D_NET *171 0.00101214
*CONN
*I *2936:B1 I *D sky130_fd_sc_hd__a21o_1
*I *2935:Y O *D sky130_fd_sc_hd__o21ai_1
*CAP
1 *2936:B1 0
2 *2935:Y 0.000310441
3 *171:10 0.000310441
4 *171:10 *207:22 4.95081e-05
5 *171:10 *207:37 0.000222785
6 *171:10 *341:49 4.21594e-06
7 *171:10 *341:65 5.86165e-05
8 *171:10 *422:36 5.61311e-05
*RES
1 *2935:Y *171:10 43.7379 
2 *171:10 *2936:B1 38 
*END

*D_NET *172 0.0074323
*CONN
*I *2937:D I *D sky130_fd_sc_hd__and4_1
*I *2936:X O *D sky130_fd_sc_hd__a21o_1
*CAP
1 *2937:D 0.000940033
2 *2936:X 0.000158254
3 *172:20 0.00276832
4 *172:8 0.00198654
5 *2937:D *3006:A 5.29672e-05
6 *2937:D *3231:A 2.32101e-05
7 *2937:D *173:8 0.000181919
8 *2937:D *352:10 0.000143655
9 *2937:D *400:37 0.000359326
10 *2937:D *424:68 2.4754e-05
11 *172:8 *3034:A 0.000228626
12 *172:20 *3128:RESET_B 4.81382e-05
13 *172:20 *3134:RESET_B 0
14 *172:20 *275:35 0
15 *172:20 *275:37 0
16 *172:20 *341:65 0
17 *3128:D *172:20 5.10805e-05
18 *51:8 *172:20 0.000112396
19 *153:16 *172:20 0.000353085
*RES
1 *2936:X *172:8 40.5271 
2 *172:8 *172:20 47.9979 
3 *172:20 *2937:D 40.7729 
*END

*D_NET *173 0.00654549
*CONN
*I *2947:B I *D sky130_fd_sc_hd__and3_1
*I *2937:X O *D sky130_fd_sc_hd__and4_1
*CAP
1 *2947:B 0.000181434
2 *2937:X 0.000141822
3 *173:10 0.001544
4 *173:8 0.00150439
5 *2947:B *338:24 7.42553e-05
6 *173:10 *202:27 0.00120289
7 *173:10 *206:59 0.00108545
8 *173:10 *318:24 0
9 *173:10 *318:28 0
10 *173:10 *337:18 0.000332375
11 *173:10 *337:31 0.000127272
12 *173:10 *343:113 0
13 *173:10 *349:8 0.000169683
14 *173:10 *428:27 0
15 *2937:D *173:8 0.000181919
16 *85:10 *173:10 0
17 *163:32 *173:10 0
*RES
1 *2937:X *173:8 40.0507 
2 *173:8 *173:10 37.8243 
3 *173:10 *2947:B 40.5271 
*END

*D_NET *174 0.000295263
*CONN
*I *2939:B1 I *D sky130_fd_sc_hd__a21o_1
*I *2938:Y O *D sky130_fd_sc_hd__o21ai_1
*CAP
1 *2939:B1 4.22049e-05
2 *2938:Y 6.11948e-05
3 *174:8 0.0001034
4 *2939:B1 *421:14 3.31643e-05
5 *174:8 *2938:A1 5.52991e-05
6 *174:8 *342:71 0
*RES
1 *2938:Y *174:8 39.2014 
2 *174:8 *2939:B1 39.2014 
*END

*D_NET *175 0.0072457
*CONN
*I *2946:A I *D sky130_fd_sc_hd__and4_1
*I *2939:X O *D sky130_fd_sc_hd__a21o_1
*CAP
1 *2946:A 0.000152643
2 *2939:X 0
3 *175:18 0.0013375
4 *175:10 0.00277109
5 *175:4 0.00158623
6 *2946:A *2943:A1 0.000139129
7 *2946:A *2946:D 1.76557e-05
8 *2946:A *3146:RESET_B 9.46372e-05
9 *2946:A *179:6 4.5051e-05
10 *2946:A *182:12 0.000141052
11 *2946:A *418:38 5.67058e-05
12 *175:10 *289:14 7.03869e-05
13 *175:10 *297:8 0.000139647
14 *175:10 *327:46 2.93747e-05
15 *175:10 *427:32 0.000243049
16 *175:18 *2922:A2 0.000163352
17 *175:18 *3041:A1 5.45887e-05
18 *175:18 *3146:RESET_B 3.21926e-05
19 *175:18 *3154:RESET_B 1.8561e-06
20 *175:18 *305:14 6.08751e-05
21 *175:18 *313:16 0.000108681
*RES
1 *2939:X *175:4 23 
2 *175:4 *175:10 44.6836 
3 *175:10 *175:18 46.9029 
4 *175:18 *2946:A 43.5721 
*END

*D_NET *176 0.000949554
*CONN
*I *2941:B1 I *D sky130_fd_sc_hd__a21o_1
*I *2940:Y O *D sky130_fd_sc_hd__o21ai_1
*CAP
1 *2941:B1 0
2 *2940:Y 0.000332929
3 *176:12 0.000332929
4 *176:12 *279:112 1.47709e-05
5 *176:12 *279:126 1.00203e-05
6 *176:12 *304:29 0.000203103
7 *176:12 *417:14 5.58003e-05
*RES
1 *2940:Y *176:12 44.4629 
2 *176:12 *2941:B1 38 
*END

*D_NET *177 0.00582004
*CONN
*I *2946:B I *D sky130_fd_sc_hd__and4_1
*I *2941:X O *D sky130_fd_sc_hd__a21o_1
*CAP
1 *2946:B 0
2 *2941:X 0
3 *177:12 0.00244258
4 *177:6 0.00244258
5 *177:12 *2884:A2 0.000271392
6 *177:12 *3041:A1 0
7 *177:12 *195:65 0.000477417
8 *177:12 *195:80 0
9 *177:12 *195:93 0
10 *177:12 *281:113 0
11 *177:12 *332:118 0
12 *177:12 *391:16 3.81476e-05
13 *177:12 *418:38 1.14452e-05
14 *177:12 *423:69 0.000136486
15 *177:12 *423:79 0
16 *177:12 *425:10 0
17 *158:10 *177:12 0
18 *163:10 *177:12 0
*RES
1 *2941:X *177:6 38 
2 *177:6 *177:12 48.575 
3 *177:12 *2946:B 38 
*END

*D_NET *178 0.00218914
*CONN
*I *2943:B1 I *D sky130_fd_sc_hd__a21o_1
*I *2942:Y O *D sky130_fd_sc_hd__o21ai_1
*CAP
1 *2943:B1 0.000156319
2 *2942:Y 0.000502406
3 *178:8 0.000658725
4 *2943:B1 *179:6 5.50106e-05
5 *2943:B1 *332:118 4.66036e-05
6 *2943:B1 *418:38 0
7 *178:8 *2922:A2 0.000272377
8 *178:8 *2942:A1 5.50106e-05
9 *178:8 *3041:A0 5.67058e-05
10 *178:8 *207:94 9.45591e-05
11 *178:8 *313:16 3.4875e-05
12 *178:8 *418:38 0.000256544
*RES
1 *2942:Y *178:8 48.15 
2 *178:8 *2943:B1 40.8793 
*END

*D_NET *179 0.000840924
*CONN
*I *2946:C I *D sky130_fd_sc_hd__and4_1
*I *2943:X O *D sky130_fd_sc_hd__a21o_1
*CAP
1 *2946:C 0
2 *2943:X 0.000115743
3 *179:6 0.000115743
4 *179:6 *2943:A1 1.32939e-05
5 *179:6 *2946:D 0.000397596
6 *179:6 *418:38 9.84851e-05
7 *2943:B1 *179:6 5.50106e-05
8 *2946:A *179:6 4.5051e-05
*RES
1 *2943:X *179:6 27.4329 
2 *179:6 *2946:C 23 
*END

*D_NET *180 0.0016567
*CONN
*I *2945:B1 I *D sky130_fd_sc_hd__a21o_1
*I *2944:Y O *D sky130_fd_sc_hd__o21ai_1
*CAP
1 *2945:B1 0
2 *2944:Y 0.000286447
3 *180:14 0.000286447
4 *180:14 *2945:A1 9.58714e-05
5 *180:14 *2945:A2 0.000227208
6 *180:14 *207:94 7.27085e-05
7 *180:14 *415:18 0.000231306
8 *180:14 *423:14 9.84794e-05
9 *180:14 *423:18 0.000358229
*RES
1 *2944:Y *180:14 32.6321 
2 *180:14 *2945:B1 23 
*END

*D_NET *181 0.00192089
*CONN
*I *2946:D I *D sky130_fd_sc_hd__and4_1
*I *2945:X O *D sky130_fd_sc_hd__a21o_1
*CAP
1 *2946:D 0.000672867
2 *2945:X 7.99533e-05
3 *181:8 0.00075282
4 *181:8 *281:65 0
5 *181:8 *332:118 0
6 *2946:A *2946:D 1.76557e-05
7 *179:6 *2946:D 0.000397596
*RES
1 *2945:X *181:8 39.2014 
2 *181:8 *2946:D 47.6736 
*END

*D_NET *182 0.0107458
*CONN
*I *2947:C I *D sky130_fd_sc_hd__and3_1
*I *2946:X O *D sky130_fd_sc_hd__and4_1
*CAP
1 *2947:C 0
2 *2946:X 0
3 *182:14 0.00160364
4 *182:12 0.00378371
5 *182:4 0.00218007
6 *182:12 *2918:A1 5.25848e-05
7 *182:12 *2943:A1 0.000212328
8 *182:12 *3042:A 0.000235692
9 *182:12 *3146:CLK 5.41288e-05
10 *182:12 *3146:RESET_B 2.98648e-05
11 *182:12 *280:71 0.000460291
12 *182:12 *308:12 3.71369e-05
13 *182:12 *410:8 0.000140259
14 *182:14 *2948:A 7.27085e-05
15 *182:14 *2995:A0 0.00065935
16 *182:14 *195:141 0.000476994
17 *182:14 *280:71 0.0001253
18 *182:14 *338:24 5.08322e-05
19 *182:14 *338:43 0.000216272
20 *2946:A *182:12 0.000141052
21 *3149:D *182:14 6.93242e-05
22 *71:10 *182:12 0.000144221
*RES
1 *2946:X *182:4 23 
2 *182:4 *182:12 41.5321 
3 *182:12 *182:14 32.8529 
4 *182:14 *2947:C 23 
*END

*D_NET *183 0.000392773
*CONN
*I *2948:A I *D sky130_fd_sc_hd__dlymetal6s2s_1
*I *2947:X O *D sky130_fd_sc_hd__and3_1
*CAP
1 *2948:A 6.19111e-05
2 *2947:X 6.19111e-05
3 *2948:A *2995:A0 5.50106e-05
4 *2948:A *338:6 0
5 *2948:A *338:24 0.000141232
6 *182:14 *2948:A 7.27085e-05
*RES
1 *2947:X *2948:A 48.5479 
*END

*D_NET *184 0.0127396
*CONN
*I *2950:A I *D sky130_fd_sc_hd__clkbuf_1
*I *2949:X O *D sky130_fd_sc_hd__or4_1
*CAP
1 *2950:A 0
2 *2949:X 1.64097e-05
3 *184:20 0.00256788
4 *184:16 0.00256788
5 *184:14 0.00120642
6 *184:6 0.00122283
7 *184:6 *199:118 2.02517e-05
8 *184:14 *2902:A2 3.91386e-05
9 *184:14 *2958:A 5.40876e-05
10 *184:14 *199:118 0.000744485
11 *184:14 *199:133 0.000420021
12 *184:14 *223:10 0.000267173
13 *184:14 *402:31 0.000139352
14 *184:14 *426:23 0
15 *184:20 *2904:A1 2.93845e-05
16 *184:20 *3225:A 9.84851e-05
17 *184:20 *195:69 0.000140259
18 *184:20 *195:80 0.000227208
19 *184:20 *207:62 0.000226306
20 *184:20 *241:10 0.000361027
21 *184:20 *294:25 0.000579845
22 *184:20 *351:31 0.000285331
23 *184:20 *423:39 4.9662e-05
24 *2899:B1 *184:14 0.000102093
25 *35:10 *184:14 0.000143163
26 *120:18 *184:14 5.58694e-05
27 *137:10 *184:14 0.000655835
28 *141:10 *184:14 0.000229801
29 *163:24 *184:14 0.000289369
*RES
1 *2949:X *184:6 23.4971 
2 *184:6 *184:14 46.7343 
3 *184:14 *184:16 15 
4 *184:16 *184:20 49.1136 
5 *184:20 *2950:A 23 
*END

*D_NET *185 0.000958223
*CONN
*I *2952:A I *D sky130_fd_sc_hd__clkbuf_1
*I *2951:X O *D sky130_fd_sc_hd__mux2_1
*CAP
1 *2952:A 0
2 *2951:X 0.000337586
3 *185:10 0.000337586
4 *185:10 *281:72 0.000141879
5 *185:10 *332:118 0.000141173
*RES
1 *2951:X *185:10 43.8621 
2 *185:10 *2952:A 38 
*END

*D_NET *186 0.00072142
*CONN
*I *2954:A I *D sky130_fd_sc_hd__clkbuf_1
*I *2953:X O *D sky130_fd_sc_hd__mux2_1
*CAP
1 *2954:A 3.17821e-05
2 *2953:X 8.697e-05
3 *186:8 0.000118752
4 *2954:A *424:26 0.00010655
5 *2954:A *425:83 0.000185428
6 *186:8 *187:10 2.5415e-05
7 *186:8 *320:8 0
8 *33:8 *186:8 0
9 *34:10 *186:8 0.000166522
*RES
1 *2953:X *186:8 40.2579 
2 *186:8 *2954:A 40.0507 
*END

*D_NET *187 0.000380855
*CONN
*I *2956:A I *D sky130_fd_sc_hd__clkbuf_1
*I *2955:X O *D sky130_fd_sc_hd__mux2_1
*CAP
1 *2956:A 0
2 *2955:X 0.000161576
3 *187:10 0.000161576
4 *187:10 *2953:A0 0
5 *187:10 *195:65 0
6 *187:10 *320:8 0
7 *187:10 *425:83 3.22879e-05
8 *34:10 *187:10 0
9 *186:8 *187:10 2.5415e-05
*RES
1 *2955:X *187:10 40.8793 
2 *187:10 *2956:A 38 
*END

*D_NET *188 0.001379
*CONN
*I *2958:A I *D sky130_fd_sc_hd__clkbuf_1
*I *2957:X O *D sky130_fd_sc_hd__mux2_1
*CAP
1 *2958:A 2.96582e-05
2 *2957:X 0.000362574
3 *188:10 0.000392232
4 *188:10 *3118:CLK 0
5 *188:10 *402:31 0
6 *120:18 *188:10 0
7 *139:16 *188:10 0.00019063
8 *141:10 *188:10 0.000295728
9 *163:24 *2958:A 5.40876e-05
10 *184:14 *2958:A 5.40876e-05
*RES
1 *2957:X *188:10 45.1257 
2 *188:10 *2958:A 39.0979 
*END

*D_NET *189 0.000266926
*CONN
*I *2960:A I *D sky130_fd_sc_hd__clkbuf_1
*I *2959:X O *D sky130_fd_sc_hd__mux2_1
*CAP
1 *2960:A 7.28197e-05
2 *2959:X 7.28197e-05
3 *2960:A *427:22 0.000102803
4 *118:6 *2960:A 1.84831e-05
*RES
1 *2959:X *2960:A 47.9471 
*END

*D_NET *190 0.000647786
*CONN
*I *2962:A I *D sky130_fd_sc_hd__clkbuf_1
*I *2961:X O *D sky130_fd_sc_hd__mux2_1
*CAP
1 *2962:A 0.000173089
2 *2961:X 0.000173089
3 *2962:A *276:61 0.00026247
4 *2962:A *284:14 3.91386e-05
*RES
1 *2961:X *2962:A 49.9979 
*END

*D_NET *191 0.000370396
*CONN
*I *2964:A I *D sky130_fd_sc_hd__clkbuf_1
*I *2963:X O *D sky130_fd_sc_hd__mux2_1
*CAP
1 *2964:A 0.000115211
2 *2963:X 0.000115211
3 *2964:A *2963:A1 0.000139974
*RES
1 *2963:X *2964:A 48.4236 
*END

*D_NET *192 0.000324975
*CONN
*I *2966:A I *D sky130_fd_sc_hd__clkbuf_1
*I *2965:X O *D sky130_fd_sc_hd__mux2_1
*CAP
1 *2966:A 5.67488e-05
2 *2965:X 6.14794e-05
3 *192:8 0.000118228
4 *192:8 *327:10 8.85189e-05
5 *135:12 *192:8 0
*RES
1 *2965:X *192:8 39.2014 
2 *192:8 *2966:A 39.2014 
*END

*D_NET *193 0.000875553
*CONN
*I *2968:A I *D sky130_fd_sc_hd__clkbuf_4
*I *2967:X O *D sky130_fd_sc_hd__or3b_1
*CAP
1 *2968:A 0
2 *2967:X 0.000288982
3 *193:10 0.000288982
4 *193:10 *2972:C 1.14154e-05
5 *193:10 *197:10 5.67058e-05
6 *193:10 *330:16 7.78672e-05
7 *193:10 *330:18 0.000151601
*RES
1 *2967:X *193:10 28.5514 
2 *193:10 *2968:A 23 
*END

*D_NET *194 0.0362558
*CONN
*I *3061:S I *D sky130_fd_sc_hd__mux2_1
*I *3057:S I *D sky130_fd_sc_hd__mux2_1
*I *3063:S I *D sky130_fd_sc_hd__mux2_1
*I *3059:S I *D sky130_fd_sc_hd__mux2_1
*I *3053:S I *D sky130_fd_sc_hd__mux2_1
*I *3065:S I *D sky130_fd_sc_hd__mux2_1
*I *2969:A I *D sky130_fd_sc_hd__buf_4
*I *3055:S I *D sky130_fd_sc_hd__mux2_1
*I *2968:X O *D sky130_fd_sc_hd__clkbuf_4
*CAP
1 *3061:S 0
2 *3057:S 0.0010572
3 *3063:S 3.09801e-05
4 *3059:S 0
5 *3053:S 6.65086e-05
6 *3065:S 0
7 *2969:A 0
8 *3055:S 0
9 *2968:X 0.00034088
10 *194:144 0.00164364
11 *194:125 0.00074248
12 *194:119 0.00128621
13 *194:108 0.00133538
14 *194:104 0.00216531
15 *194:102 0.00199108
16 *194:93 0.000934494
17 *194:82 0.00105186
18 *194:74 0.00172219
19 *194:66 0.0018415
20 *194:51 0.000980904
21 *194:40 0.000803607
22 *194:36 0.0022353
23 *194:30 0.00215427
24 *194:20 0.00177912
25 *194:14 0.000719709
26 *3053:S *3053:A1 5.47808e-05
27 *3057:S *3057:A0 0.000141052
28 *3057:S *3057:A1 5.50049e-05
29 *3057:S *3162:CLK 1.94812e-05
30 *3057:S *289:10 8.54584e-05
31 *3063:S *3063:A0 2.02517e-05
32 *3063:S *3064:A 0
33 *3063:S *319:33 5.90675e-06
34 *194:14 *3172:CLK 5.68958e-05
35 *194:14 *275:47 8.31016e-05
36 *194:14 *299:12 1.00084e-05
37 *194:14 *330:16 0.000173522
38 *194:20 *3061:A0 0.000199362
39 *194:20 *202:106 4.75206e-05
40 *194:20 *299:12 0.000419189
41 *194:20 *390:14 8.65332e-05
42 *194:30 *3061:A0 1.72202e-05
43 *194:30 *3061:A1 0.000274078
44 *194:30 *3164:RESET_B 4.90177e-05
45 *194:30 *3226:A 0.000100488
46 *194:30 *202:106 8.96493e-05
47 *194:30 *246:10 0.000313244
48 *194:30 *278:36 0
49 *194:36 *206:150 0
50 *194:36 *317:14 2.35238e-05
51 *194:36 *328:14 0.000101339
52 *194:36 *345:106 0.000445736
53 *194:40 *3055:A1 5.50049e-05
54 *194:40 *373:28 2.4754e-05
55 *194:51 *195:18 0.000118114
56 *194:51 *198:19 0.000271373
57 *194:51 *198:142 0.00103219
58 *194:51 *344:12 0
59 *194:51 *344:29 0
60 *194:66 *198:142 0.000186032
61 *194:66 *198:152 0.000413152
62 *194:66 *199:36 2.02872e-05
63 *194:74 *3002:A 9.91548e-05
64 *194:74 *3134:RESET_B 0.000111106
65 *194:74 *195:33 0.000448567
66 *194:74 *275:27 0.000401833
67 *194:82 *3065:A0 2.50118e-05
68 *194:82 *3065:A1 5.5792e-05
69 *194:82 *3066:A 0.00018017
70 *194:82 *3128:RESET_B 4.70852e-05
71 *194:82 *398:8 2.93845e-05
72 *194:93 *2873:A1 2.72882e-05
73 *194:93 *3053:A1 6.60621e-05
74 *194:93 *3128:RESET_B 2.89399e-05
75 *194:93 *198:152 0.000629035
76 *194:93 *287:27 8.85753e-05
77 *194:93 *392:27 0.000111654
78 *194:104 *2889:A2 0.000272745
79 *194:104 *3011:A0 8.62876e-05
80 *194:104 *3131:RESET_B 0.000130685
81 *194:104 *3163:RESET_B 9.70962e-05
82 *194:104 *199:168 0
83 *194:104 *213:8 0
84 *194:104 *242:8 0
85 *194:104 *362:48 0
86 *194:104 *395:14 8.85189e-05
87 *194:104 *395:29 0
88 *194:104 *403:19 0.000221193
89 *194:104 *427:44 0
90 *194:108 *3059:A1 1.76557e-05
91 *194:108 *245:8 1.24376e-05
92 *194:108 *389:71 5.73288e-05
93 *194:119 *3059:A1 0.000132433
94 *194:119 *3165:RESET_B 0
95 *194:119 *316:14 0
96 *194:125 *3063:A1 5.50106e-05
97 *194:125 *3064:A 3.91386e-05
98 *194:125 *319:33 2.98648e-05
99 *194:125 *319:45 8.1796e-05
100 *194:144 *3063:A1 0.000130423
101 *194:144 *3096:A 0.000245998
102 *194:144 *3235:A 0.000226306
103 *194:144 *198:55 1.40958e-05
104 *194:144 *198:70 8.48502e-06
105 *194:144 *198:84 5.60717e-05
106 *194:144 *280:89 2.29192e-05
107 *194:144 *300:12 8.62783e-05
108 *194:144 *319:33 0.000128527
109 *2897:D *194:82 1.40533e-05
110 *3162:D *3057:S 0.000107748
111 *3172:D *194:14 1.70513e-05
112 *3190:D *194:36 1.73399e-05
113 *81:10 *194:30 0
114 *83:10 *194:82 5.70419e-05
115 *108:10 *194:104 0
116 *111:12 *194:51 4.06408e-05
117 *127:8 *194:104 0.00014028
118 *128:14 *194:93 0.00100956
119 *130:12 *194:66 0.000200004
120 *130:12 *194:93 4.96024e-05
121 *135:6 *194:82 2.23691e-05
122 *153:16 *194:74 0.000113244
*RES
1 *2968:X *194:14 46.7829 
2 *194:14 *194:20 24.4871 
3 *194:20 *194:30 46.3021 
4 *194:30 *194:36 37.2679 
5 *194:36 *194:40 29.4379 
6 *194:40 *3055:S 23 
7 *194:20 *194:51 47.4 
8 *194:51 *2969:A 23 
9 *194:51 *194:66 23.9486 
10 *194:66 *194:74 45.0386 
11 *194:74 *194:82 32.69 
12 *194:82 *3065:S 23 
13 *194:66 *194:93 38.1586 
14 *194:93 *3053:S 24.5743 
15 *194:93 *194:102 15 
16 *194:102 *194:104 39.585 
17 *194:104 *194:108 18.0036 
18 *194:108 *3059:S 23 
19 *194:108 *194:119 36.46 
20 *194:119 *194:125 18.0243 
21 *194:125 *3063:S 23.8493 
22 *194:125 *194:144 42.47 
23 *194:144 *3057:S 39.4057 
24 *194:20 *3061:S 23 
*END

*D_NET *195 0.0320092
*CONN
*I *2995:S I *D sky130_fd_sc_hd__mux2_1
*I *2999:S I *D sky130_fd_sc_hd__mux2_1
*I *2970:S I *D sky130_fd_sc_hd__mux2_1
*I *2989:S I *D sky130_fd_sc_hd__mux2_1
*I *2993:S I *D sky130_fd_sc_hd__mux2_1
*I *2987:S I *D sky130_fd_sc_hd__mux2_1
*I *3051:S I *D sky130_fd_sc_hd__mux2_1
*I *2991:S I *D sky130_fd_sc_hd__mux2_1
*I *3001:S I *D sky130_fd_sc_hd__mux2_1
*I *2997:S I *D sky130_fd_sc_hd__mux2_1
*I *2969:X O *D sky130_fd_sc_hd__buf_4
*CAP
1 *2995:S 0
2 *2999:S 0
3 *2970:S 4.59519e-05
4 *2989:S 0.000336331
5 *2993:S 0
6 *2987:S 0
7 *3051:S 0
8 *2991:S 0
9 *3001:S 0
10 *2997:S 2.69029e-05
11 *2969:X 4.54044e-05
12 *195:141 0.000468763
13 *195:130 0.000535528
14 *195:126 0.00133206
15 *195:115 0.00134758
16 *195:100 0.00169824
17 *195:93 0.00127165
18 *195:80 0.00156087
19 *195:69 0.000337129
20 *195:65 0.000981805
21 *195:54 0.000163448
22 *195:48 0.00343352
23 *195:33 0.00298505
24 *195:29 0.00121666
25 *195:18 0.000705761
26 *195:8 0.000903995
27 *2970:S *318:55 1.24376e-05
28 *2970:S *318:68 4.95081e-05
29 *2989:S *2989:A0 9.91101e-05
30 *2989:S *2990:A 0.000140927
31 *2989:S *198:152 0.000359816
32 *2989:S *392:27 4.33827e-05
33 *2997:S *2997:A1 4.93812e-05
34 *2997:S *344:22 0.000146822
35 *2997:S *404:35 5.56279e-05
36 *195:8 *199:36 2.64616e-05
37 *195:18 *203:60 0.000271573
38 *195:18 *214:8 0
39 *195:18 *396:10 5.86204e-05
40 *195:18 *404:35 0.000158796
41 *195:18 *428:46 5.44889e-06
42 *195:33 *3001:A0 9.91548e-05
43 *195:33 *3002:A 0.000141347
44 *195:48 *3001:A0 5.5792e-05
45 *195:48 *3001:A1 4.70565e-05
46 *195:48 *203:81 0.000350573
47 *195:48 *203:87 9.29361e-06
48 *195:48 *323:40 0.000315538
49 *195:48 *401:18 0.000334176
50 *195:48 *401:30 0.000208665
51 *195:48 *425:57 5.5792e-05
52 *195:54 *323:40 0.000103123
53 *195:65 *2953:A0 0
54 *195:65 *203:87 1.15185e-05
55 *195:65 *332:70 6.6869e-05
56 *195:65 *346:77 0
57 *195:65 *423:79 0.000169674
58 *195:65 *424:14 1.28427e-05
59 *195:69 *351:31 5.41288e-05
60 *195:80 *351:31 0.000122226
61 *195:93 *348:18 0.00177563
62 *195:100 *3128:RESET_B 0
63 *195:115 *3121:RESET_B 0.000318429
64 *195:115 *199:162 2.60152e-05
65 *195:115 *200:10 0.000153784
66 *195:115 *277:54 0.000104051
67 *195:115 *318:68 0
68 *195:115 *342:49 0.000451358
69 *195:115 *344:29 0.000173179
70 *195:115 *361:8 0
71 *195:126 *338:49 0
72 *195:126 *342:49 7.73901e-05
73 *195:126 *342:56 0.000188904
74 *195:126 *361:8 0
75 *195:130 *2999:A1 5.82853e-05
76 *195:130 *215:10 0.000154518
77 *195:130 *429:67 0.000179624
78 *195:141 *215:10 0
79 *195:141 *338:43 0.000874379
80 *195:141 *338:49 0
81 *195:141 *342:56 0.000208169
82 *34:10 *195:65 0
83 *45:8 *195:100 0
84 *109:14 *195:115 0.000130755
85 *111:12 *195:18 0.00027094
86 *111:12 *195:29 0.000380939
87 *111:12 *195:100 0.000662569
88 *111:12 *195:115 0.000357939
89 *128:14 *195:100 0
90 *128:14 *195:115 0
91 *158:10 *195:80 0.000218696
92 *158:10 *195:93 0.000322736
93 *177:12 *195:65 0.000477417
94 *177:12 *195:80 0
95 *177:12 *195:93 0
96 *182:14 *195:141 0.000476994
97 *184:20 *195:69 0.000140259
98 *184:20 *195:80 0.000227208
99 *187:10 *195:65 0
100 *194:51 *195:18 0.000118114
101 *194:74 *195:33 0.000448567
*RES
1 *2969:X *195:8 38.6214 
2 *195:8 *195:18 44.8729 
3 *195:18 *2997:S 39.5743 
4 *195:8 *195:29 5.075 
5 *195:29 *195:33 28.485 
6 *195:33 *3001:S 23 
7 *195:33 *195:48 41.325 
8 *195:48 *195:54 33.6664 
9 *195:54 *2991:S 23 
10 *195:48 *195:65 35.735 
11 *195:65 *195:69 16.5743 
12 *195:69 *3051:S 23 
13 *195:69 *195:80 23.3064 
14 *195:80 *2987:S 38 
15 *195:80 *195:93 45.6157 
16 *195:93 *2993:S 23 
17 *195:29 *195:100 8.94857 
18 *195:100 *2989:S 45.7679 
19 *195:100 *195:115 23.925 
20 *195:115 *2970:S 39.0979 
21 *195:115 *195:126 8.24429 
22 *195:126 *195:130 27.0557 
23 *195:130 *2999:S 23 
24 *195:126 *195:141 30.4529 
25 *195:141 *2995:S 23 
*END

*D_NET *196 0.000251349
*CONN
*I *2971:A I *D sky130_fd_sc_hd__clkbuf_1
*I *2970:X O *D sky130_fd_sc_hd__mux2_1
*CAP
1 *2971:A 8.68128e-05
2 *2970:X 8.68128e-05
3 *2971:A *318:55 6.40002e-05
4 *2971:A *343:37 1.37232e-05
*RES
1 *2970:X *2971:A 47.9471 
*END

*D_NET *197 0.000360253
*CONN
*I *2973:A I *D sky130_fd_sc_hd__buf_4
*I *2972:X O *D sky130_fd_sc_hd__and3b_1
*CAP
1 *2973:A 0
2 *2972:X 0.000151774
3 *197:10 0.000151774
4 *197:10 *202:8 0
5 *89:8 *197:10 0
6 *193:10 *197:10 5.67058e-05
*RES
1 *2972:X *197:10 40.5271 
2 *197:10 *2973:A 38 
*END

*D_NET *198 0.0388258
*CONN
*I *2974:A I *D sky130_fd_sc_hd__buf_4
*I *3069:S I *D sky130_fd_sc_hd__mux2_1
*I *3081:S I *D sky130_fd_sc_hd__mux2_1
*I *3071:S I *D sky130_fd_sc_hd__mux2_1
*I *3079:S I *D sky130_fd_sc_hd__mux2_1
*I *3073:S I *D sky130_fd_sc_hd__mux2_1
*I *3075:S I *D sky130_fd_sc_hd__mux2_1
*I *3077:S I *D sky130_fd_sc_hd__mux2_1
*I *2973:X O *D sky130_fd_sc_hd__buf_4
*CAP
1 *2974:A 0
2 *3069:S 0.000158622
3 *3081:S 0.000160328
4 *3071:S 0
5 *3079:S 0
6 *3073:S 0.000550649
7 *3075:S 0.000806635
8 *3077:S 0
9 *2973:X 0.000193091
10 *198:152 0.0009951
11 *198:142 0.00135819
12 *198:120 0.000962023
13 *198:104 0.00142
14 *198:84 0.00107999
15 *198:70 0.000552681
16 *198:55 0.00152342
17 *198:39 0.000908605
18 *198:33 0.00336338
19 *198:31 0.0031949
20 *198:29 0.00215305
21 *198:19 0.00273869
22 *198:6 0.000554661
23 *3069:S *2989:A0 0.000144501
24 *3069:S *322:28 0.000315852
25 *3069:S *362:48 5.67058e-05
26 *3073:S *3074:A 0.000106318
27 *3073:S *3237:A 0.000119299
28 *3073:S *384:27 7.24484e-05
29 *3073:S *384:40 1.40958e-05
30 *3075:S *3075:A0 2.79692e-05
31 *3075:S *3234:A 5.50049e-05
32 *3075:S *206:96 0.00130419
33 *3075:S *319:45 1.56665e-05
34 *3081:S *3082:A 2.02517e-05
35 *3081:S *278:50 0.000110972
36 *198:6 *3077:A0 2.46906e-05
37 *198:6 *3078:A 0.000146822
38 *198:6 *206:136 0.000667473
39 *198:6 *390:18 0.000100069
40 *198:19 *2871:B1 0.000222104
41 *198:19 *3061:A0 2.24973e-05
42 *198:19 *3077:A0 1.5769e-05
43 *198:19 *206:136 0.000266888
44 *198:19 *291:10 0.000188916
45 *198:19 *390:18 0.000210792
46 *198:29 *3158:CLK 1.94812e-05
47 *198:29 *422:10 5.67058e-05
48 *198:33 *2895:A1 0.000248699
49 *198:33 *3166:RESET_B 0
50 *198:33 *203:100 0
51 *198:33 *278:16 8.2338e-05
52 *198:33 *278:20 0.000195248
53 *198:33 *278:92 4.91627e-05
54 *198:33 *278:115 0.000157443
55 *198:33 *300:16 0.00231534
56 *198:33 *308:12 0
57 *198:33 *309:21 0
58 *198:33 *328:14 0
59 *198:33 *345:38 0
60 *198:33 *345:60 0.000438156
61 *198:33 *430:98 0
62 *198:33 *430:102 7.17279e-05
63 *198:39 *263:8 3.47781e-05
64 *198:39 *300:12 0.000215865
65 *198:39 *300:16 2.34364e-05
66 *198:39 *308:12 0
67 *198:55 *3096:A 5.50049e-05
68 *198:55 *3181:RESET_B 6.24895e-05
69 *198:55 *263:8 0.000162812
70 *198:55 *280:119 0.000260859
71 *198:55 *300:6 0.000228903
72 *198:55 *308:12 0
73 *198:55 *319:33 9.41704e-05
74 *198:55 *319:45 0.000137651
75 *198:70 *319:33 5.3304e-05
76 *198:84 *3079:A0 0.000401899
77 *198:84 *3170:CLK 2.18409e-05
78 *198:84 *255:10 0.000110373
79 *198:84 *280:99 1.252e-05
80 *198:84 *319:22 1.98161e-05
81 *198:84 *319:33 3.3958e-05
82 *198:84 *348:102 5.44961e-05
83 *198:84 *387:8 0.000191157
84 *198:104 *3082:A 3.30451e-05
85 *198:104 *278:50 0.000143739
86 *198:120 *3071:A0 9.58714e-05
87 *198:120 *320:25 8.62876e-05
88 *198:120 *345:28 9.99228e-05
89 *198:120 *345:32 3.82058e-06
90 *198:120 *345:100 8.4047e-05
91 *198:142 *2871:B1 0.000401146
92 *198:142 *199:6 0.000102971
93 *198:142 *199:36 0.000141347
94 *198:142 *396:29 0
95 *198:152 *2989:A0 4.03352e-05
96 *198:152 *392:27 2.86218e-05
97 *198:152 *424:49 0
98 *2989:S *198:152 0.000359816
99 *3158:D *198:29 2.93747e-05
100 *3181:D *198:55 0.000449058
101 *59:10 *198:33 0.000215782
102 *91:10 *198:104 0.00010018
103 *110:8 *198:142 8.41115e-05
104 *130:12 *198:142 0.000179118
105 *130:12 *198:152 1.50409e-05
106 *133:10 *198:33 0.000584713
107 *136:8 *198:33 0.000113153
108 *155:10 *198:33 0.000110913
109 *194:51 *198:19 0.000271373
110 *194:51 *198:142 0.00103219
111 *194:66 *198:142 0.000186032
112 *194:66 *198:152 0.000413152
113 *194:93 *198:152 0.000629035
114 *194:144 *198:55 1.40958e-05
115 *194:144 *198:70 8.48502e-06
116 *194:144 *198:84 5.60717e-05
*RES
1 *2973:X *198:6 30.2914 
2 *198:6 *3077:S 23 
3 *198:6 *198:19 24.7564 
4 *198:19 *198:29 42.0114 
5 *198:29 *198:31 15 
6 *198:31 *198:33 75.3275 
7 *198:33 *198:39 19.1118 
8 *198:39 *198:55 48.9329 
9 *198:55 *3075:S 41.3114 
10 *198:39 *198:70 0.621429 
11 *198:70 *198:84 41.1443 
12 *198:84 *3073:S 32.6943 
13 *198:70 *3079:S 23 
14 *198:29 *198:104 6.02786 
15 *198:104 *198:120 44.5414 
16 *198:120 *3071:S 23 
17 *198:104 *3081:S 26.5214 
18 *198:19 *198:142 31.4057 
19 *198:142 *198:152 49.9893 
20 *198:152 *3069:S 27.9093 
21 *198:142 *2974:A 23 
*END

*D_NET *199 0.0317795
*CONN
*I *2975:S I *D sky130_fd_sc_hd__mux2_1
*I *3011:S I *D sky130_fd_sc_hd__mux2_1
*I *3009:S I *D sky130_fd_sc_hd__mux2_1
*I *3015:S I *D sky130_fd_sc_hd__mux2_1
*I *3003:S I *D sky130_fd_sc_hd__mux2_1
*I *3067:S I *D sky130_fd_sc_hd__mux2_1
*I *3007:S I *D sky130_fd_sc_hd__mux2_1
*I *3017:S I *D sky130_fd_sc_hd__mux2_1
*I *3005:S I *D sky130_fd_sc_hd__mux2_1
*I *3013:S I *D sky130_fd_sc_hd__mux2_1
*I *2974:X O *D sky130_fd_sc_hd__buf_4
*CAP
1 *2975:S 3.16897e-05
2 *3011:S 0
3 *3009:S 0
4 *3015:S 0
5 *3003:S 0.000304398
6 *3067:S 8.50819e-05
7 *3007:S 0
8 *3017:S 0
9 *3005:S 0
10 *3013:S 0
11 *2974:X 0
12 *199:168 0.000155943
13 *199:162 0.00110789
14 *199:148 0.00109136
15 *199:139 0.000140322
16 *199:133 0.00103657
17 *199:118 0.0011987
18 *199:110 0.000674114
19 *199:102 0.00162296
20 *199:80 0.000529264
21 *199:76 0.00218593
22 *199:63 0.00321744
23 *199:42 0.00280246
24 *199:36 0.00309195
25 *199:29 0.000503057
26 *199:14 0.000262523
27 *199:6 0.00113482
28 *199:4 0.000686462
29 *2975:S *337:18 0.000172996
30 *2975:S *355:10 0.00010018
31 *3003:S *207:62 0
32 *3003:S *351:25 0.00062643
33 *3067:S *3067:A0 9.84851e-05
34 *199:14 *339:20 0
35 *199:29 *322:34 8.58465e-05
36 *199:29 *400:10 2.94423e-05
37 *199:42 *2896:A1 9.97435e-06
38 *199:42 *2896:A2 0.000121803
39 *199:63 *3129:RESET_B 0.000217089
40 *199:63 *273:99 0.000529208
41 *199:63 *279:16 5.1934e-05
42 *199:63 *393:6 3.73222e-05
43 *199:63 *393:23 8.75894e-05
44 *199:63 *401:10 3.28246e-05
45 *199:76 *279:16 0
46 *199:76 *320:8 0.000171796
47 *199:76 *401:10 1.50326e-05
48 *199:80 *207:62 0
49 *199:80 *351:14 0.000225275
50 *199:80 *351:25 8.11552e-05
51 *199:102 *342:10 0.000111852
52 *199:102 *342:24 0.000110669
53 *199:102 *344:29 0.000881788
54 *199:110 *2949:B 8.62876e-05
55 *199:110 *429:18 8.4047e-05
56 *199:118 *2949:A 0.000397596
57 *199:118 *3015:A0 0.00010018
58 *199:118 *3241:A 2.93845e-05
59 *199:118 *337:18 4.75976e-05
60 *199:118 *355:10 7.44161e-06
61 *199:133 *3015:A0 0.000391478
62 *199:133 *3118:RESET_B 0.000214984
63 *199:133 *3141:RESET_B 0.000862494
64 *199:133 *203:100 0.000267942
65 *199:133 *332:33 0
66 *199:133 *336:29 2.76611e-06
67 *199:133 *429:35 2.18409e-05
68 *199:139 *402:14 9.5876e-06
69 *199:148 *344:29 5.62433e-05
70 *199:162 *3121:RESET_B 0.000194318
71 *199:162 *277:40 9.84851e-05
72 *199:162 *277:54 0.000120989
73 *199:162 *337:18 0.000139352
74 *199:162 *342:49 4.36616e-05
75 *199:162 *344:29 0.000247687
76 *199:168 *202:44 0
77 *2916:B1 *199:42 0.000356972
78 *3121:D *199:162 9.78568e-05
79 *3129:D *199:63 6.17437e-06
80 *46:8 *199:63 4.11274e-05
81 *116:14 *199:102 0
82 *116:14 *199:148 0
83 *134:6 *199:42 0.000175121
84 *137:10 *199:139 2.96369e-05
85 *153:8 *199:42 1.43261e-05
86 *153:16 *199:110 0.000243247
87 *163:24 *199:118 0.000109046
88 *163:32 *2975:S 4.66047e-05
89 *163:32 *199:162 7.15126e-05
90 *184:6 *199:118 2.02517e-05
91 *184:14 *199:118 0.000744485
92 *184:14 *199:133 0.000420021
93 *194:66 *199:36 2.02872e-05
94 *194:104 *199:168 0
95 *195:8 *199:36 2.64616e-05
96 *195:115 *199:162 2.60152e-05
97 *198:142 *199:6 0.000102971
98 *198:142 *199:36 0.000141347
*RES
1 *2974:X *199:4 23 
2 *199:4 *199:6 7.29143 
3 *199:6 *199:14 34.6607 
4 *199:14 *3013:S 23 
5 *199:6 *199:29 39.715 
6 *199:29 *3005:S 23 
7 *199:4 *199:36 5.38571 
8 *199:36 *199:42 27.8193 
9 *199:42 *3017:S 23 
10 *199:42 *199:63 40.9343 
11 *199:63 *3007:S 38 
12 *199:63 *199:76 42.6121 
13 *199:76 *199:80 19.0186 
14 *199:80 *3067:S 39.5743 
15 *199:80 *3003:S 46.2443 
16 *199:36 *199:102 41.5557 
17 *199:102 *199:110 36.1107 
18 *199:110 *199:118 26.1443 
19 *199:118 *3015:S 23 
20 *199:118 *199:133 49.2021 
21 *199:133 *199:139 32.2579 
22 *199:139 *3009:S 23 
23 *199:102 *199:148 16.9057 
24 *199:148 *199:162 49.0157 
25 *199:162 *199:168 32.2579 
26 *199:168 *3011:S 23 
27 *199:148 *2975:S 25.0507 
*END

*D_NET *200 0.00115304
*CONN
*I *2976:A I *D sky130_fd_sc_hd__clkbuf_1
*I *2975:X O *D sky130_fd_sc_hd__mux2_1
*CAP
1 *2976:A 4.9469e-05
2 *2975:X 0.000247026
3 *200:10 0.000296495
4 *2976:A *277:54 5.50049e-05
5 *200:10 *277:54 0.000131997
6 *200:10 *337:18 0.000178517
7 *3124:D *2976:A 7.53384e-06
8 *109:14 *200:10 1.13589e-05
9 *153:26 *2976:A 2.18506e-05
10 *195:115 *200:10 0.000153784
*RES
1 *2975:X *200:10 42.3086 
2 *200:10 *2976:A 39.0979 
*END

*D_NET *201 0.000150017
*CONN
*I *2978:A I *D sky130_fd_sc_hd__buf_4
*I *2977:X O *D sky130_fd_sc_hd__and3b_1
*CAP
1 *2978:A 6.32867e-05
2 *2977:X 6.32867e-05
3 *2978:A *340:40 2.34437e-05
*RES
1 *2977:X *2978:A 47.4707 
*END

*D_NET *202 0.0407551
*CONN
*I *3097:S I *D sky130_fd_sc_hd__mux2_1
*I *3087:S I *D sky130_fd_sc_hd__mux2_1
*I *3093:S I *D sky130_fd_sc_hd__mux2_1
*I *3089:S I *D sky130_fd_sc_hd__mux2_1
*I *3095:S I *D sky130_fd_sc_hd__mux2_1
*I *3091:S I *D sky130_fd_sc_hd__mux2_1
*I *3085:S I *D sky130_fd_sc_hd__mux2_1
*I *2979:A I *D sky130_fd_sc_hd__buf_4
*I *2978:X O *D sky130_fd_sc_hd__buf_4
*CAP
1 *3097:S 0
2 *3087:S 0
3 *3093:S 0.00023213
4 *3089:S 0.000955463
5 *3095:S 0
6 *3091:S 0.000137046
7 *3085:S 0.000209
8 *2979:A 0
9 *2978:X 0.000529688
10 *202:126 0.000743681
11 *202:120 0.00273197
12 *202:106 0.00474393
13 *202:73 0.00175549
14 *202:71 0.00100077
15 *202:61 0.00169892
16 *202:44 0.00321301
17 *202:42 0.00196879
18 *202:27 0.00177388
19 *202:16 0.00174423
20 *202:12 0.00114913
21 *202:10 0.00310228
22 *202:8 0.000529688
23 *3085:S *3085:A0 3.41017e-05
24 *3089:S *3233:A 0.000227208
25 *3089:S *3236:A 0.000228909
26 *3089:S *389:18 0.000487147
27 *3089:S *389:22 0.000934781
28 *3091:S *3091:A1 2.93845e-05
29 *3093:S *3093:A0 0.000141052
30 *3093:S *3211:A 0.000397899
31 *202:8 *205:10 0
32 *202:8 *329:21 0
33 *202:8 *330:40 0
34 *202:16 *206:29 0.000897143
35 *202:16 *206:40 0.000193379
36 *202:27 *3168:CLK 0
37 *202:27 *206:40 0.00134705
38 *202:27 *428:27 0
39 *202:42 *242:8 3.70187e-05
40 *202:42 *277:10 0
41 *202:42 *337:18 0.000571494
42 *202:44 *2995:A0 8.75688e-05
43 *202:44 *3131:CLK 4.76829e-05
44 *202:44 *3210:A 0
45 *202:44 *213:8 0
46 *202:44 *221:10 0.000377172
47 *202:44 *277:10 0
48 *202:44 *277:103 0.000204156
49 *202:44 *277:116 1.62615e-05
50 *202:44 *285:23 0
51 *202:44 *314:12 0
52 *202:44 *325:49 0.000290846
53 *202:44 *388:10 7.03766e-05
54 *202:44 *427:146 4.23714e-05
55 *202:61 *3210:A 0
56 *202:61 *253:8 0
57 *202:61 *277:116 6.88715e-05
58 *202:61 *388:10 1.83667e-05
59 *202:71 *3165:CLK 0.000271476
60 *202:71 *271:8 6.4393e-05
61 *202:71 *316:8 0.00010018
62 *202:71 *389:30 5.61255e-06
63 *202:73 *3095:A0 9.58714e-05
64 *202:73 *316:8 9.16459e-05
65 *202:73 *389:22 0.000535675
66 *202:73 *389:30 0.000251675
67 *202:106 *3061:A0 2.02872e-05
68 *202:106 *3097:A0 0.00010018
69 *202:106 *3098:A 6.85133e-05
70 *202:106 *3226:A 0.000655835
71 *202:120 *3097:A0 9.97092e-05
72 *202:120 *3098:A 0
73 *202:120 *3161:RESET_B 5.80128e-05
74 *202:120 *206:150 0.000210522
75 *202:120 *206:171 0.000257105
76 *202:120 *278:60 0.000131072
77 *202:120 *288:21 0
78 *202:120 *296:10 5.56203e-05
79 *202:120 *324:10 0
80 *202:126 *3071:A0 6.17437e-06
81 *202:126 *3224:A 9.91895e-05
82 *202:126 *267:10 0.000182826
83 *202:126 *373:14 5.90675e-06
84 *202:126 *373:16 5.60406e-05
85 *202:126 *373:20 0.000274367
86 *3161:D *202:120 3.56215e-05
87 *3189:D *202:71 0.000182832
88 *48:10 *202:44 9.53602e-05
89 *49:8 *202:16 0
90 *85:10 *202:27 0
91 *88:8 *202:61 0
92 *163:32 *3085:S 7.88828e-05
93 *163:32 *202:42 0.00035517
94 *173:10 *202:27 0.00120289
95 *194:20 *202:106 4.75206e-05
96 *194:30 *202:106 8.96493e-05
97 *197:10 *202:8 0
98 *199:168 *202:44 0
*RES
1 *2978:X *202:8 46.2443 
2 *202:8 *202:10 15 
3 *202:10 *202:12 6.33857 
4 *202:12 *202:16 29.2307 
5 *202:16 *2979:A 38 
6 *202:16 *202:27 46.1336 
7 *202:27 *3085:S 26.9564 
8 *202:27 *202:42 26.2996 
9 *202:42 *202:44 36.3432 
10 *202:44 *3091:S 40.0507 
11 *202:44 *202:61 40.7271 
12 *202:61 *202:71 35.8829 
13 *202:71 *202:73 19.2021 
14 *202:73 *3095:S 23 
15 *202:73 *3089:S 49.3486 
16 *202:12 *3093:S 29.525 
17 *202:10 *202:106 39.3779 
18 *202:106 *202:120 45.4293 
19 *202:120 *202:126 30.4114 
20 *202:126 *3087:S 23 
21 *202:106 *3097:S 23 
*END

*D_NET *203 0.0440666
*CONN
*I *3083:S I *D sky130_fd_sc_hd__mux2_1
*I *3019:S I *D sky130_fd_sc_hd__mux2_1
*I *3025:S I *D sky130_fd_sc_hd__mux2_1
*I *3031:S I *D sky130_fd_sc_hd__mux2_1
*I *3023:S I *D sky130_fd_sc_hd__mux2_1
*I *3033:S I *D sky130_fd_sc_hd__mux2_1
*I *3029:S I *D sky130_fd_sc_hd__mux2_1
*I *3027:S I *D sky130_fd_sc_hd__mux2_1
*I *2980:S I *D sky130_fd_sc_hd__mux2_1
*I *3021:S I *D sky130_fd_sc_hd__mux2_1
*I *2979:X O *D sky130_fd_sc_hd__buf_4
*CAP
1 *3083:S 0
2 *3019:S 0
3 *3025:S 0
4 *3031:S 0.00018034
5 *3023:S 0
6 *3033:S 0
7 *3029:S 0
8 *3027:S 0
9 *2980:S 0.000106552
10 *3021:S 0
11 *2979:X 0
12 *203:146 0.00043361
13 *203:140 0.000679284
14 *203:138 0.00115931
15 *203:125 0.00305177
16 *203:102 0.00231847
17 *203:100 0.00220408
18 *203:87 0.00219578
19 *203:81 0.00371582
20 *203:71 0.00423215
21 *203:60 0.0033544
22 *203:40 0.000445025
23 *203:25 0.00133629
24 *203:14 0.000784711
25 *203:12 0.00100128
26 *203:6 0.00158605
27 *203:4 0.00343115
28 *2980:S *2980:A0 2.64616e-05
29 *2980:S *2980:A1 8.06804e-06
30 *3031:S *2919:A2 0.000270682
31 *3031:S *3031:A0 5.3304e-05
32 *203:6 *2912:A1 7.15126e-05
33 *203:6 *2912:A2 0.000401899
34 *203:6 *3029:A0 8.39276e-05
35 *203:6 *428:94 0.000195293
36 *203:12 *3021:A1 0
37 *203:12 *3029:A0 7.88828e-05
38 *203:12 *274:10 0.000110023
39 *203:12 *274:54 9.51416e-05
40 *203:12 *274:77 0.000277899
41 *203:12 *274:92 0
42 *203:12 *322:10 0
43 *203:12 *340:8 0
44 *203:12 *340:16 0
45 *203:12 *408:10 4.58924e-05
46 *203:25 *3176:RESET_B 7.30875e-05
47 *203:25 *266:10 0
48 *203:25 *325:18 0.00103686
49 *203:25 *350:8 6.25829e-05
50 *203:40 *3120:CLK 1.37246e-05
51 *203:40 *3176:RESET_B 5.86432e-05
52 *203:40 *325:18 0.000427952
53 *203:40 *340:8 2.67053e-05
54 *203:40 *343:85 0.00104585
55 *203:40 *350:8 0.000313678
56 *203:60 *3014:A 7.59964e-05
57 *203:60 *3150:CLK 0.000103637
58 *203:60 *3150:RESET_B 5.50049e-05
59 *203:60 *326:43 1.68097e-05
60 *203:60 *328:20 2.18109e-05
61 *203:60 *328:24 9.67842e-05
62 *203:60 *404:35 0.000128652
63 *203:60 *414:8 5.50049e-05
64 *203:60 *414:14 6.53382e-05
65 *203:71 *3018:A 5.67058e-05
66 *203:71 *278:10 4.6318e-06
67 *203:71 *278:92 0.000189985
68 *203:71 *278:115 3.61904e-05
69 *203:71 *328:20 0.000312888
70 *203:71 *336:10 0.000271935
71 *203:71 *430:98 8.57485e-05
72 *203:81 *3008:A 1.88919e-05
73 *203:81 *401:18 5.96168e-05
74 *203:81 *401:30 0.000218031
75 *203:87 *3008:A 1.35714e-05
76 *203:87 *323:40 0.000200367
77 *203:87 *351:14 0.000137744
78 *203:87 *401:18 4.10345e-05
79 *203:100 *2898:A2 2.3529e-05
80 *203:100 *3141:RESET_B 3.95159e-06
81 *203:100 *332:33 0
82 *203:100 *336:10 0.000541427
83 *203:100 *336:29 6.44678e-05
84 *203:100 *405:12 1.12487e-05
85 *203:100 *413:12 0
86 *203:100 *427:22 0
87 *203:100 *429:43 0.00015795
88 *203:100 *429:55 0
89 *203:100 *430:98 0.000720745
90 *203:125 *2919:A1 2.75275e-06
91 *203:125 *2919:A2 3.34247e-05
92 *203:125 *2923:A2 2.25419e-05
93 *203:125 *3025:A0 3.71369e-05
94 *203:125 *228:10 0.000346822
95 *203:125 *427:14 5.48079e-05
96 *203:138 *265:10 2.93747e-05
97 *203:138 *423:29 0.0004367
98 *203:140 *348:18 0.000487376
99 *203:146 *3099:A1 2.22503e-05
100 *203:146 *3143:RESET_B 0
101 *203:146 *323:12 0
102 *203:146 *351:38 0.000183812
103 *203:146 *423:117 3.98859e-05
104 *2919:B1 *3031:S 1.37232e-05
105 *2919:B1 *203:125 3.16665e-05
106 *63:10 *203:125 5.67058e-05
107 *69:8 *203:12 9.52228e-05
108 *155:10 *203:100 1.19692e-05
109 *156:8 *203:125 0.000465716
110 *195:18 *203:60 0.000271573
111 *195:48 *203:81 0.000350573
112 *195:48 *203:87 9.29361e-06
113 *195:65 *203:87 1.15185e-05
114 *198:33 *203:100 0
115 *199:133 *203:100 0.000267942
*RES
1 *2979:X *203:4 23 
2 *203:4 *203:6 13.0086 
3 *203:6 *203:12 37.5164 
4 *203:12 *203:14 15 
5 *203:14 *3021:S 23 
6 *203:14 *203:25 33.8914 
7 *203:25 *2980:S 39.595 
8 *203:25 *203:40 31.6957 
9 *203:40 *3027:S 23 
10 *203:6 *3029:S 23 
11 *203:4 *203:60 40.7243 
12 *203:60 *3033:S 23 
13 *203:60 *203:71 29.355 
14 *203:71 *203:81 37.2471 
15 *203:81 *203:87 44.2071 
16 *203:87 *3023:S 38 
17 *203:71 *203:100 44.9293 
18 *203:100 *203:102 15 
19 *203:102 *3031:S 27.3293 
20 *203:102 *203:125 32.915 
21 *203:125 *3025:S 23 
22 *203:125 *203:138 48.7879 
23 *203:138 *203:140 5.38571 
24 *203:140 *203:146 38.9486 
25 *203:146 *3019:S 23 
26 *203:140 *3083:S 23 
*END

*D_NET *204 0.000249722
*CONN
*I *2981:A I *D sky130_fd_sc_hd__clkbuf_1
*I *2980:X O *D sky130_fd_sc_hd__mux2_1
*CAP
1 *2981:A 0.000124861
2 *2980:X 0.000124861
*RES
1 *2980:X *2981:A 48.4236 
*END

*D_NET *205 0.000820682
*CONN
*I *2983:A I *D sky130_fd_sc_hd__buf_4
*I *2982:X O *D sky130_fd_sc_hd__and3_1
*CAP
1 *2983:A 8.47031e-05
2 *2982:X 0.000208848
3 *205:10 0.000293551
4 *2983:A *206:8 0.000103647
5 *205:10 *2982:C 5.50106e-05
6 *205:10 *330:20 4.95081e-05
7 *105:10 *205:10 2.5415e-05
8 *202:8 *205:10 0
*RES
1 *2982:X *205:10 41.48 
2 *205:10 *2983:A 40.0507 
*END

*D_NET *206 0.0449673
*CONN
*I *3103:S I *D sky130_fd_sc_hd__mux2_1
*I *3113:S I *D sky130_fd_sc_hd__mux2_1
*I *3111:S I *D sky130_fd_sc_hd__mux2_1
*I *3105:S I *D sky130_fd_sc_hd__mux2_1
*I *3107:S I *D sky130_fd_sc_hd__mux2_1
*I *3101:S I *D sky130_fd_sc_hd__mux2_1
*I *2984:A I *D sky130_fd_sc_hd__buf_4
*I *3109:S I *D sky130_fd_sc_hd__mux2_1
*I *2983:X O *D sky130_fd_sc_hd__buf_4
*CAP
1 *3103:S 0
2 *3113:S 0
3 *3111:S 0
4 *3105:S 0
5 *3107:S 3.2572e-05
6 *3101:S 0
7 *2984:A 0
8 *3109:S 0.000151708
9 *2983:X 2.34823e-05
10 *206:181 0.00133508
11 *206:171 0.00204229
12 *206:150 0.000967697
13 *206:136 0.00210096
14 *206:112 0.000342517
15 *206:106 0.00243879
16 *206:104 0.00234439
17 *206:96 0.000578032
18 *206:86 0.00118709
19 *206:61 0.000889746
20 *206:59 0.00258832
21 *206:57 0.00273482
22 *206:48 0.000325055
23 *206:40 0.00110562
24 *206:29 0.00121443
25 *206:8 0.000852954
26 *206:6 0.00198483
27 *3107:S *3107:A0 2.93747e-05
28 *3109:S *3109:A0 0.000110564
29 *3109:S *3109:A1 0.000143321
30 *3109:S *3213:A 0.000228909
31 *3109:S *390:26 0.000282057
32 *206:8 *3213:A 0.000130423
33 *206:8 *270:10 9.10439e-05
34 *206:8 *390:26 0.000620179
35 *206:29 *2931:A1 8.93326e-05
36 *206:29 *2931:B1 0
37 *206:40 *2931:A1 1.4471e-05
38 *206:40 *273:26 0.000116577
39 *206:40 *428:27 0.000412394
40 *206:40 *428:29 4.23817e-05
41 *206:48 *362:33 0.000397815
42 *206:57 *362:33 0.00016778
43 *206:59 *2995:A0 0
44 *206:59 *3187:RESET_B 0
45 *206:59 *3210:A 0
46 *206:59 *277:10 0
47 *206:59 *285:23 8.06039e-05
48 *206:59 *314:12 0
49 *206:59 *325:49 0
50 *206:59 *337:18 0.000330144
51 *206:59 *337:31 0.000138718
52 *206:59 *343:120 0
53 *206:59 *349:8 7.1357e-05
54 *206:59 *427:78 0
55 *206:59 *427:96 0
56 *206:59 *428:16 0.000140958
57 *206:86 *3107:A0 2.32101e-05
58 *206:86 *3210:A 9.84851e-05
59 *206:86 *253:8 0
60 *206:86 *277:123 0.000289708
61 *206:86 *298:10 0
62 *206:86 *389:53 0.000341291
63 *206:86 *389:71 8.94487e-05
64 *206:96 *3075:A0 5.56356e-05
65 *206:96 *3111:A0 1.03836e-05
66 *206:96 *3234:A 5.50049e-05
67 *206:96 *319:45 5.3304e-05
68 *206:96 *344:53 0.000534925
69 *206:96 *389:32 0.000186208
70 *206:104 *3227:A 2.26489e-05
71 *206:104 *271:8 0
72 *206:104 *316:14 3.49587e-05
73 *206:104 *344:45 0.000148803
74 *206:106 *3227:A 0.000315857
75 *206:106 *3232:A 0.000272383
76 *206:106 *319:12 0.00249226
77 *206:112 *3089:A1 8.62876e-05
78 *206:112 *3105:A1 0.000274543
79 *206:112 *3178:RESET_B 0.000224336
80 *206:112 *3233:A 0
81 *206:136 *3077:A0 7.73227e-05
82 *206:136 *3114:A 6.39087e-05
83 *206:136 *3164:CLK 4.96717e-05
84 *206:136 *3164:RESET_B 0.00025894
85 *206:136 *278:28 0.0002836
86 *206:136 *278:36 5.50106e-05
87 *206:136 *291:10 0.000141052
88 *206:136 *390:26 0.00101198
89 *206:150 *3097:A0 5.3304e-05
90 *206:150 *3113:A0 6.9805e-05
91 *206:150 *278:28 0
92 *206:150 *309:21 0.000140958
93 *206:150 *317:29 5.45677e-05
94 *206:150 *364:8 0.000135547
95 *206:171 *3056:A 7.53384e-06
96 *206:171 *3113:A0 0.00010018
97 *206:171 *3161:RESET_B 0
98 *206:171 *278:60 0.000129508
99 *206:171 *317:29 0.000183206
100 *206:171 *345:28 1.30956e-05
101 *206:171 *345:100 0
102 *206:171 *354:10 0
103 *206:181 *3072:A 0.000173325
104 *206:181 *3104:A 3.71251e-05
105 *206:181 *3169:CLK 5.68958e-05
106 *206:181 *3169:RESET_B 2.8521e-05
107 *206:181 *279:88 0
108 *206:181 *296:10 5.70419e-05
109 *206:181 *304:10 6.68793e-05
110 *206:181 *333:31 1.94693e-05
111 *206:181 *345:8 0.000199025
112 *206:181 *345:16 7.88926e-05
113 *2983:A *206:8 0.000103647
114 *3075:S *206:96 0.00130419
115 *3169:D *206:181 4.54829e-05
116 *3182:D *206:136 0.000141052
117 *3185:D *206:181 4.79612e-05
118 *56:10 *206:59 0
119 *82:10 *206:104 0.000187996
120 *106:8 *206:104 0
121 *107:10 *206:136 9.67842e-05
122 *149:12 *206:48 6.16531e-05
123 *166:8 *206:48 1.86869e-05
124 *173:10 *206:59 0.00108545
125 *194:36 *206:150 0
126 *198:6 *206:136 0.000667473
127 *198:19 *206:136 0.000266888
128 *202:16 *206:29 0.000897143
129 *202:16 *206:40 0.000193379
130 *202:27 *206:40 0.00134705
131 *202:120 *206:150 0.000210522
132 *202:120 *206:171 0.000257105
*RES
1 *2983:X *206:6 23.4971 
2 *206:6 *206:8 6.815 
3 *206:8 *3109:S 29.4007 
4 *206:8 *206:29 29.645 
5 *206:29 *2984:A 38 
6 *206:29 *206:40 35.5693 
7 *206:40 *206:48 35.2821 
8 *206:48 *3101:S 23 
9 *206:40 *206:57 17.0507 
10 *206:57 *206:59 55.7836 
11 *206:59 *206:61 15 
12 *206:61 *3107:S 23.6214 
13 *206:61 *206:86 48.0007 
14 *206:86 *206:96 16.675 
15 *206:96 *206:104 35.5721 
16 *206:104 *206:106 44.9293 
17 *206:106 *206:112 37.8921 
18 *206:112 *3105:S 23 
19 *206:96 *3111:S 23 
20 *206:6 *206:136 41.9671 
21 *206:136 *206:150 37.3329 
22 *206:150 *3113:S 23 
23 *206:150 *206:171 44.0443 
24 *206:171 *206:181 39.0079 
25 *206:181 *3103:S 38 
*END

*D_NET *207 0.0473237
*CONN
*I *2985:S I *D sky130_fd_sc_hd__mux2_1
*I *3047:S I *D sky130_fd_sc_hd__mux2_1
*I *3043:S I *D sky130_fd_sc_hd__mux2_1
*I *3037:S I *D sky130_fd_sc_hd__mux2_1
*I *3045:S I *D sky130_fd_sc_hd__mux2_1
*I *3041:S I *D sky130_fd_sc_hd__mux2_1
*I *3035:S I *D sky130_fd_sc_hd__mux2_1
*I *3099:S I *D sky130_fd_sc_hd__mux2_1
*I *3039:S I *D sky130_fd_sc_hd__mux2_1
*I *3049:S I *D sky130_fd_sc_hd__mux2_1
*I *2984:X O *D sky130_fd_sc_hd__buf_4
*CAP
1 *2985:S 0.000395803
2 *3047:S 0
3 *3043:S 0
4 *3037:S 5.22695e-05
5 *3045:S 0.000225089
6 *3041:S 0
7 *3035:S 0
8 *3099:S 7.42921e-05
9 *3039:S 1.20369e-05
10 *3049:S 0
11 *2984:X 0
12 *207:172 0.00214067
13 *207:149 0.00244816
14 *207:137 0.000787338
15 *207:133 0.00150583
16 *207:118 0.00245606
17 *207:105 0.00162421
18 *207:94 0.000853505
19 *207:77 0.00108759
20 *207:66 0.000815153
21 *207:62 0.00201244
22 *207:45 0.00228456
23 *207:39 0.00177857
24 *207:37 0.00167379
25 *207:22 0.00208129
26 *207:16 0.00197979
27 *207:4 0.000977673
28 *2985:S *2985:A0 1.5769e-05
29 *2985:S *318:24 0.000373927
30 *2985:S *325:41 4.00259e-06
31 *3037:S *266:10 0.00010655
32 *3037:S *322:28 0.000228903
33 *3045:S *2911:B1 0
34 *3045:S *2931:A2 0.00010018
35 *3045:S *339:38 0
36 *3045:S *339:54 4.83778e-05
37 *3045:S *420:8 5.50049e-05
38 *3045:S *420:14 0.000222123
39 *3045:S *420:21 9.84851e-05
40 *3045:S *428:109 7.75329e-06
41 *3099:S *3099:A0 0.00010018
42 *207:16 *2998:A 0.000163765
43 *207:16 *3140:RESET_B 0.000225256
44 *207:16 *214:8 1.14452e-05
45 *207:16 *339:8 5.50049e-05
46 *207:16 *339:20 1.01436e-05
47 *207:16 *344:22 5.50106e-05
48 *207:16 *428:42 7.57176e-05
49 *207:22 *3049:A0 0.00010018
50 *207:22 *3132:RESET_B 0.00170994
51 *207:37 *2895:A1 5.50106e-05
52 *207:37 *2895:A2 5.50106e-05
53 *207:37 *3049:A0 2.86356e-05
54 *207:37 *3132:RESET_B 0
55 *207:37 *333:12 0.000427162
56 *207:37 *422:21 0.000136743
57 *207:39 *2895:A2 1.72202e-05
58 *207:39 *2895:B1 0.000664191
59 *207:39 *3219:A 0.000213869
60 *207:39 *3240:A 0.000131105
61 *207:39 *312:18 9.84794e-05
62 *207:39 *333:8 0.00152013
63 *207:39 *333:12 0.00196185
64 *207:39 *369:10 0.00024018
65 *207:45 *3039:A0 7.35277e-05
66 *207:45 *227:10 3.21898e-05
67 *207:45 *346:41 0
68 *207:45 *346:67 0
69 *207:45 *351:14 0
70 *207:45 *417:14 0.000141724
71 *207:62 *3003:A1 0
72 *207:62 *249:14 7.23738e-05
73 *207:62 *279:69 4.08641e-05
74 *207:62 *346:67 0
75 *207:62 *351:14 0
76 *207:62 *351:25 0
77 *207:62 *399:29 1.02387e-05
78 *207:62 *423:39 6.38845e-05
79 *207:62 *423:45 0.000163352
80 *207:66 *3003:A1 0.000355699
81 *207:66 *3099:A1 0.000422996
82 *207:66 *321:12 0.00101142
83 *207:66 *321:14 0.000303269
84 *207:66 *351:38 0.00115007
85 *207:77 *321:10 1.14452e-05
86 *207:77 *321:12 0.000422629
87 *207:77 *423:14 0
88 *207:94 *2945:A2 0.000195818
89 *207:94 *233:10 5.70419e-05
90 *207:94 *321:10 5.01986e-05
91 *207:94 *415:18 0.000133309
92 *207:94 *418:38 0.000185428
93 *207:94 *423:14 0
94 *207:105 *2911:A1 4.21378e-05
95 *207:105 *2998:A 0
96 *207:105 *428:42 0.000267173
97 *207:105 *428:109 5.50049e-05
98 *207:118 *339:38 0
99 *207:118 *339:91 0
100 *207:118 *416:36 0
101 *207:118 *424:107 0.000207427
102 *207:118 *428:109 6.7177e-06
103 *207:133 *2913:B1 0.00049336
104 *207:133 *2961:A1 0
105 *207:133 *3043:A1 1.86973e-05
106 *207:133 *3243:A 0.000128574
107 *207:133 *258:8 8.85189e-05
108 *207:133 *266:10 0
109 *207:133 *284:29 0
110 *207:133 *318:36 0
111 *207:133 *325:31 1.987e-05
112 *207:133 *424:107 0.000311375
113 *207:137 *318:24 9.5877e-05
114 *207:149 *2909:A1 9.37397e-05
115 *207:149 *3043:A1 4.89939e-05
116 *207:149 *306:10 0
117 *207:149 *332:10 0
118 *207:149 *411:23 8.4047e-05
119 *207:172 *2870:A1 1.14762e-05
120 *207:172 *2929:A2 0.000486246
121 *207:172 *3047:A0 4.06849e-05
122 *207:172 *3048:A 3.92409e-05
123 *207:172 *3131:CLK 9.4713e-05
124 *207:172 *306:10 0
125 *207:172 *332:10 0
126 *207:172 *395:6 1.39431e-05
127 *207:172 *395:14 4.30264e-05
128 *207:172 *419:17 0.000394994
129 *207:172 *427:32 8.0224e-05
130 *2870:B1 *207:172 5.56356e-05
131 *3003:S *207:62 0
132 *37:10 *207:133 0.00021356
133 *43:10 *207:133 0.000211943
134 *43:10 *207:149 0.000132198
135 *74:10 *207:172 0.00010018
136 *101:8 *207:118 0
137 *101:8 *207:133 0
138 *109:8 *207:172 0.00014419
139 *133:10 *207:37 0.000113302
140 *147:10 *207:133 0.000742052
141 *148:10 *207:105 9.84851e-05
142 *148:10 *207:118 6.68793e-05
143 *149:12 *207:118 0
144 *154:8 *207:133 0
145 *166:8 *207:149 0
146 *167:10 *3045:S 3.22879e-05
147 *168:8 *207:105 0.00010018
148 *168:12 *207:118 0
149 *171:10 *207:22 4.95081e-05
150 *171:10 *207:37 0.000222785
151 *178:8 *207:94 9.45591e-05
152 *180:14 *207:94 7.27085e-05
153 *184:20 *207:62 0.000226306
154 *199:80 *207:62 0
*RES
1 *2984:X *207:4 23 
2 *207:4 *207:16 42.2007 
3 *207:16 *207:22 27.695 
4 *207:22 *3049:S 23 
5 *207:22 *207:37 15.5979 
6 *207:37 *207:39 38.2593 
7 *207:39 *207:45 28.0396 
8 *207:45 *3039:S 38.3211 
9 *207:45 *207:62 41.8354 
10 *207:62 *207:66 36.9779 
11 *207:66 *3099:S 39.5743 
12 *207:66 *207:77 5.77929 
13 *207:77 *3035:S 38 
14 *207:77 *207:94 32.7107 
15 *207:94 *3041:S 23 
16 *207:4 *207:105 24.0936 
17 *207:105 *3045:S 43.8414 
18 *207:105 *207:118 19.5129 
19 *207:118 *3037:S 40.5271 
20 *207:118 *207:133 35.4214 
21 *207:133 *207:137 16.0979 
22 *207:137 *207:149 21.6079 
23 *207:149 *3043:S 38 
24 *207:149 *207:172 48.6193 
25 *207:172 *3047:S 23 
26 *207:137 *2985:S 28.7586 
*END

*D_NET *208 0.000391583
*CONN
*I *2986:A I *D sky130_fd_sc_hd__clkbuf_1
*I *2985:X O *D sky130_fd_sc_hd__mux2_1
*CAP
1 *2986:A 6.9479e-05
2 *2985:X 6.0729e-05
3 *208:8 0.000130208
4 *208:8 *2909:A1 4.41821e-06
5 *208:8 *2961:A1 3.88629e-05
6 *166:8 *208:8 8.78864e-05
*RES
1 *2985:X *208:8 39.2014 
2 *208:8 *2986:A 39.4707 
*END

*D_NET *209 0.00136534
*CONN
*I *2988:A I *D sky130_fd_sc_hd__clkbuf_1
*I *2987:X O *D sky130_fd_sc_hd__mux2_1
*CAP
1 *2988:A 0.000199442
2 *2987:X 0.000317339
3 *209:10 0.00051678
4 *2988:A *3127:CLK 5.3304e-05
5 *209:10 *423:69 2.64616e-05
6 *209:10 *423:79 4.67488e-05
7 *2885:B1 *209:10 1.57571e-05
8 *3127:D *2988:A 6.9805e-05
9 *123:10 *209:10 6.03737e-05
10 *163:10 *209:10 5.93278e-05
*RES
1 *2987:X *209:10 43.1371 
2 *209:10 *2988:A 41.5007 
*END

*D_NET *210 0.000374395
*CONN
*I *2990:A I *D sky130_fd_sc_hd__clkbuf_1
*I *2989:X O *D sky130_fd_sc_hd__mux2_1
*CAP
1 *2990:A 0.000116734
2 *2989:X 0.000116734
3 *2989:S *2990:A 0.000140927
*RES
1 *2989:X *2990:A 48.4236 
*END

*D_NET *211 0.000296059
*CONN
*I *2992:A I *D sky130_fd_sc_hd__clkbuf_1
*I *2991:X O *D sky130_fd_sc_hd__mux2_1
*CAP
1 *2992:A 7.05563e-05
2 *2991:X 7.05563e-05
3 *2992:A *2991:A1 9.91548e-05
4 *2992:A *346:77 5.5792e-05
*RES
1 *2991:X *2992:A 47.9471 
*END

*D_NET *212 0.0012841
*CONN
*I *2994:A I *D sky130_fd_sc_hd__clkbuf_1
*I *2993:X O *D sky130_fd_sc_hd__mux2_1
*CAP
1 *2994:A 0.000220295
2 *2993:X 0.000308484
3 *212:10 0.000528779
4 *212:10 *3130:RESET_B 2.84479e-05
5 *212:10 *332:93 1.85903e-05
6 *212:10 *348:18 8.82778e-05
7 *212:10 *348:40 3.87353e-06
8 *118:16 *2994:A 8.73569e-05
*RES
1 *2993:X *212:10 42.205 
2 *212:10 *2994:A 41.3764 
*END

*D_NET *213 0.000982147
*CONN
*I *2996:A I *D sky130_fd_sc_hd__clkbuf_1
*I *2995:X O *D sky130_fd_sc_hd__mux2_1
*CAP
1 *2996:A 3.64454e-05
2 *2995:X 0.000238474
3 *213:8 0.000274919
4 *2996:A *277:90 7.88828e-05
5 *2996:A *427:72 7.88828e-05
6 *213:8 *3131:CLK 0
7 *213:8 *3131:RESET_B 0.000274543
8 *48:10 *213:8 0
9 *194:104 *213:8 0
10 *202:44 *213:8 0
*RES
1 *2995:X *213:8 43.075 
2 *213:8 *2996:A 39.5743 
*END

*D_NET *214 0.00131072
*CONN
*I *2998:A I *D sky130_fd_sc_hd__clkbuf_1
*I *2997:X O *D sky130_fd_sc_hd__mux2_1
*CAP
1 *2998:A 0.000167552
2 *2997:X 8.25507e-05
3 *214:8 0.000250103
4 *2998:A *344:22 5.12254e-05
5 *2998:A *428:42 0.000525417
6 *214:8 *326:60 1.01436e-05
7 *214:8 *339:20 4.85126e-05
8 *214:8 *404:35 0
9 *195:18 *214:8 0
10 *207:16 *2998:A 0.000163765
11 *207:16 *214:8 1.14452e-05
12 *207:105 *2998:A 0
*RES
1 *2997:X *214:8 39.5536 
2 *214:8 *2998:A 44.3593 
*END

*D_NET *215 0.00115085
*CONN
*I *3000:A I *D sky130_fd_sc_hd__clkbuf_1
*I *2999:X O *D sky130_fd_sc_hd__mux2_1
*CAP
1 *3000:A 0
2 *2999:X 0.000427515
3 *215:10 0.000427515
4 *215:10 *338:49 0.000141303
5 *195:130 *215:10 0.000154518
6 *195:141 *215:10 0
*RES
1 *2999:X *215:10 44.815 
2 *215:10 *3000:A 38 
*END

*D_NET *216 0.000414033
*CONN
*I *3002:A I *D sky130_fd_sc_hd__clkbuf_1
*I *3001:X O *D sky130_fd_sc_hd__mux2_1
*CAP
1 *3002:A 8.67658e-05
2 *3001:X 8.67658e-05
3 *194:74 *3002:A 9.91548e-05
4 *195:33 *3002:A 0.000141347
*RES
1 *3001:X *3002:A 48.4236 
*END

*D_NET *217 0.000305453
*CONN
*I *3004:A I *D sky130_fd_sc_hd__clkbuf_1
*I *3003:X O *D sky130_fd_sc_hd__mux2_1
*CAP
1 *3004:A 0.000124061
2 *3003:X 0.000124061
3 *52:10 *3004:A 5.73309e-05
*RES
1 *3003:X *3004:A 48.5686 
*END

*D_NET *218 0.00117036
*CONN
*I *3006:A I *D sky130_fd_sc_hd__clkbuf_1
*I *3005:X O *D sky130_fd_sc_hd__mux2_1
*CAP
1 *3006:A 0.000198185
2 *3005:X 6.48172e-05
3 *218:8 0.000263002
4 *3006:A *2893:B1 9.84794e-05
5 *3006:A *3231:A 4.08664e-05
6 *3006:A *400:37 1.56762e-05
7 *3006:A *424:68 0.000112203
8 *218:8 *295:8 0.000110913
9 *218:8 *400:37 3.21223e-05
10 *2937:D *3006:A 5.29672e-05
11 *131:10 *3006:A 0.000181125
*RES
1 *3005:X *218:8 39.5536 
2 *218:8 *3006:A 43.2821 
*END

*D_NET *219 0.0002003
*CONN
*I *3008:A I *D sky130_fd_sc_hd__clkbuf_1
*I *3007:X O *D sky130_fd_sc_hd__mux2_1
*CAP
1 *3008:A 5.32436e-05
2 *3007:X 5.32436e-05
3 *3008:A *401:18 6.13495e-05
4 *203:81 *3008:A 1.88919e-05
5 *203:87 *3008:A 1.35714e-05
*RES
1 *3007:X *3008:A 47.4707 
*END

*D_NET *220 0.0013919
*CONN
*I *3010:A I *D sky130_fd_sc_hd__clkbuf_1
*I *3009:X O *D sky130_fd_sc_hd__mux2_1
*CAP
1 *3010:A 0
2 *3009:X 0.000227201
3 *220:8 0.000227201
4 *220:8 *2957:A0 5.61255e-06
5 *220:8 *2957:A1 2.02872e-05
6 *220:8 *3009:A1 0.000269701
7 *220:8 *332:60 7.9199e-05
8 *2906:D *220:8 0.000562694
*RES
1 *3009:X *220:8 30.1879 
2 *220:8 *3010:A 23 
*END

*D_NET *221 0.00107374
*CONN
*I *3012:A I *D sky130_fd_sc_hd__clkbuf_1
*I *3011:X O *D sky130_fd_sc_hd__mux2_1
*CAP
1 *3012:A 3.6708e-05
2 *3011:X 0.000257417
3 *221:10 0.000294125
4 *3012:A *277:17 5.3304e-05
5 *221:10 *2889:A2 0
6 *221:10 *325:49 5.50106e-05
7 *221:10 *403:19 0
8 *202:44 *221:10 0.000377172
*RES
1 *3011:X *221:10 43.6964 
2 *221:10 *3012:A 38.6214 
*END

*D_NET *222 0.000406268
*CONN
*I *3014:A I *D sky130_fd_sc_hd__clkbuf_1
*I *3013:X O *D sky130_fd_sc_hd__mux2_1
*CAP
1 *3014:A 7.15714e-05
2 *3013:X 7.15714e-05
3 *3014:A *326:41 0.000187129
4 *203:60 *3014:A 7.59964e-05
*RES
1 *3013:X *3014:A 48.9 
*END

*D_NET *223 0.00160503
*CONN
*I *3016:A I *D sky130_fd_sc_hd__clkbuf_1
*I *3015:X O *D sky130_fd_sc_hd__mux2_1
*CAP
1 *3016:A 0
2 *3015:X 0.000575316
3 *223:10 0.000575316
4 *223:10 *2949:A 3.83778e-05
5 *223:10 *3202:A 0
6 *223:10 *3241:A 9.21347e-06
7 *223:10 *282:19 0.000139629
8 *58:10 *223:10 0
9 *126:12 *223:10 0
10 *184:14 *223:10 0.000267173
*RES
1 *3015:X *223:10 47.8393 
2 *223:10 *3016:A 38 
*END

*D_NET *224 0.00143337
*CONN
*I *3018:A I *D sky130_fd_sc_hd__clkbuf_1
*I *3017:X O *D sky130_fd_sc_hd__mux2_1
*CAP
1 *3018:A 0.000124173
2 *3017:X 6.08552e-05
3 *224:8 0.000185028
4 *3018:A *278:8 0.00026025
5 *3018:A *328:20 0.000391473
6 *224:8 *2895:A1 0.000165844
7 *224:8 *3166:RESET_B 0.000165844
8 *59:10 *3018:A 2.32004e-05
9 *203:71 *3018:A 5.67058e-05
*RES
1 *3017:X *224:8 40.2579 
2 *224:8 *3018:A 42.4329 
*END

*D_NET *225 0.000320919
*CONN
*I *3020:A I *D sky130_fd_sc_hd__clkbuf_1
*I *3019:X O *D sky130_fd_sc_hd__mux2_1
*CAP
1 *3020:A 8.86321e-05
2 *3019:X 8.86321e-05
3 *3020:A *3019:A0 0
4 *161:10 *3020:A 0.000143655
*RES
1 *3019:X *3020:A 48.4236 
*END

*D_NET *226 0.000301508
*CONN
*I *3022:A I *D sky130_fd_sc_hd__clkbuf_1
*I *3021:X O *D sky130_fd_sc_hd__mux2_1
*CAP
1 *3022:A 0.000148753
2 *3021:X 0.000148753
3 *3022:A *3021:A1 4.00259e-06
*RES
1 *3021:X *3022:A 48.9 
*END

*D_NET *227 0.00212288
*CONN
*I *3024:A I *D sky130_fd_sc_hd__clkbuf_1
*I *3023:X O *D sky130_fd_sc_hd__mux2_1
*CAP
1 *3024:A 0.000499145
2 *3023:X 0.000305542
3 *227:10 0.000804687
4 *3024:A *3145:RESET_B 1.2704e-05
5 *3024:A *279:126 0.000118476
6 *3024:A *346:29 9.97387e-06
7 *3024:A *346:33 4.05309e-05
8 *227:10 *3039:A0 8.36198e-05
9 *227:10 *323:26 3.44029e-05
10 *227:10 *417:14 0.000141724
11 *3145:D *3024:A 3.98818e-05
12 *207:45 *227:10 3.21898e-05
*RES
1 *3023:X *227:10 43.5929 
2 *227:10 *3024:A 45.54 
*END

*D_NET *228 0.000847494
*CONN
*I *3026:A I *D sky130_fd_sc_hd__clkbuf_1
*I *3025:X O *D sky130_fd_sc_hd__mux2_1
*CAP
1 *3026:A 0
2 *3025:X 0.000135732
3 *228:10 0.000135732
4 *228:10 *2923:A2 0.000130729
5 *2923:B1 *228:10 9.84794e-05
6 *203:125 *228:10 0.000346822
*RES
1 *3025:X *228:10 27.9507 
2 *228:10 *3026:A 23 
*END

*D_NET *229 0.000214049
*CONN
*I *3028:A I *D sky130_fd_sc_hd__clkbuf_1
*I *3027:X O *D sky130_fd_sc_hd__mux2_1
*CAP
1 *3028:A 7.85033e-05
2 *3027:X 7.85033e-05
3 *3028:A *318:24 5.70419e-05
*RES
1 *3027:X *3028:A 47.9471 
*END

*D_NET *230 0.00107101
*CONN
*I *3030:A I *D sky130_fd_sc_hd__clkbuf_1
*I *3029:X O *D sky130_fd_sc_hd__mux2_1
*CAP
1 *3030:A 3.80995e-05
2 *3029:X 0.000284811
3 *230:10 0.000322911
4 *230:10 *274:10 0.00021289
5 *230:10 *274:12 0.000157299
6 *230:10 *274:16 1.01436e-05
7 *65:8 *230:10 4.48568e-05
*RES
1 *3029:X *230:10 44.1729 
2 *230:10 *3030:A 38.6214 
*END

*D_NET *231 0.00179806
*CONN
*I *3032:A I *D sky130_fd_sc_hd__clkbuf_1
*I *3031:X O *D sky130_fd_sc_hd__mux2_1
*CAP
1 *3032:A 0
2 *3031:X 0.000674384
3 *231:10 0.000674384
4 *231:10 *327:31 0.000220047
5 *231:10 *344:45 0.000171906
6 *231:10 *429:67 5.61311e-05
7 *3133:D *231:10 1.20433e-06
*RES
1 *3031:X *231:10 48.5021 
2 *231:10 *3032:A 38 
*END

*D_NET *232 0.00114272
*CONN
*I *3034:A I *D sky130_fd_sc_hd__clkbuf_1
*I *3033:X O *D sky130_fd_sc_hd__mux2_1
*CAP
1 *3034:A 0.000328169
2 *3033:X 6.50475e-05
3 *232:8 0.000393216
4 *3034:A *430:36 3.91386e-05
5 *232:8 *341:65 0
6 *232:8 *430:30 8.85189e-05
7 *172:8 *3034:A 0.000228626
*RES
1 *3033:X *232:8 39.2014 
2 *232:8 *3034:A 44.8564 
*END

*D_NET *233 0.000771416
*CONN
*I *3036:A I *D sky130_fd_sc_hd__clkbuf_1
*I *3035:X O *D sky130_fd_sc_hd__mux2_1
*CAP
1 *3036:A 0
2 *3035:X 0.000244806
3 *233:10 0.000244806
4 *233:10 *281:65 0
5 *233:10 *347:80 9.98891e-05
6 *233:10 *347:91 8.15327e-05
7 *68:8 *233:10 4.334e-05
8 *207:94 *233:10 5.70419e-05
*RES
1 *3035:X *233:10 43.8207 
2 *233:10 *3036:A 38 
*END

*D_NET *234 0.000628238
*CONN
*I *3038:A I *D sky130_fd_sc_hd__clkbuf_1
*I *3037:X O *D sky130_fd_sc_hd__mux2_1
*CAP
1 *3038:A 0.000187955
2 *3037:X 4.63418e-05
3 *234:8 0.000234297
4 *3038:A *3184:RESET_B 2.02517e-05
5 *234:8 *3144:RESET_B 3.72639e-05
6 *234:8 *325:18 8.85189e-05
7 *234:8 *339:91 6.07611e-06
8 *3184:D *3038:A 7.53384e-06
*RES
1 *3037:X *234:8 39.2014 
2 *234:8 *3038:A 41.045 
*END

*D_NET *235 0.00050136
*CONN
*I *3040:A I *D sky130_fd_sc_hd__clkbuf_1
*I *3039:X O *D sky130_fd_sc_hd__mux2_1
*CAP
1 *3040:A 0.000149617
2 *3039:X 0.000149617
3 *3040:A *323:32 0.000188526
4 *3040:A *409:24 1.35999e-05
*RES
1 *3039:X *3040:A 49.5214 
*END

*D_NET *236 0.00176077
*CONN
*I *3042:A I *D sky130_fd_sc_hd__clkbuf_1
*I *3041:X O *D sky130_fd_sc_hd__mux2_1
*CAP
1 *3042:A 0.000614499
2 *3041:X 5.10758e-05
3 *236:8 0.000665575
4 *3042:A *3146:CLK 0.000112203
5 *236:8 *2922:A2 4.08641e-05
6 *159:8 *236:8 4.08641e-05
7 *182:12 *3042:A 0.000235692
*RES
1 *3041:X *236:8 39.2014 
2 *236:8 *3042:A 47.0936 
*END

*D_NET *237 0.0014714
*CONN
*I *3044:A I *D sky130_fd_sc_hd__clkbuf_1
*I *3043:X O *D sky130_fd_sc_hd__mux2_1
*CAP
1 *3044:A 0
2 *3043:X 0.000496355
3 *237:10 0.000496355
4 *237:10 *3155:CLK 0.000252161
5 *237:10 *276:99 0
6 *237:10 *338:26 2.03764e-06
7 *237:10 *340:8 0.000171906
8 *237:10 *419:6 5.25848e-05
*RES
1 *3043:X *237:10 46.5964 
2 *237:10 *3044:A 38 
*END

*D_NET *238 0.000857117
*CONN
*I *3046:A I *D sky130_fd_sc_hd__clkbuf_1
*I *3045:X O *D sky130_fd_sc_hd__mux2_1
*CAP
1 *3046:A 0.000331955
2 *3045:X 7.6177e-05
3 *238:8 0.000408132
4 *238:8 *2931:B1 0
5 *238:8 *339:56 4.08537e-05
*RES
1 *3045:X *238:8 39.2014 
2 *238:8 *3046:A 43.7586 
*END

*D_NET *239 0.000243713
*CONN
*I *3048:A I *D sky130_fd_sc_hd__clkbuf_1
*I *3047:X O *D sky130_fd_sc_hd__mux2_1
*CAP
1 *3048:A 7.59438e-05
2 *3047:X 7.59438e-05
3 *3048:A *427:32 5.25848e-05
4 *207:172 *3048:A 3.92409e-05
*RES
1 *3047:X *3048:A 47.9471 
*END

*D_NET *240 0.000466254
*CONN
*I *3050:A I *D sky130_fd_sc_hd__clkbuf_1
*I *3049:X O *D sky130_fd_sc_hd__mux2_1
*CAP
1 *3050:A 7.7298e-05
2 *3049:X 6.14794e-05
3 *240:8 0.000138777
4 *3050:A *344:12 0.00010018
5 *240:8 *341:10 1.14452e-05
6 *240:8 *341:49 7.70737e-05
*RES
1 *3049:X *240:8 39.2014 
2 *240:8 *3050:A 39.9471 
*END

*D_NET *241 0.00106038
*CONN
*I *3052:A I *D sky130_fd_sc_hd__clkbuf_1
*I *3051:X O *D sky130_fd_sc_hd__mux2_1
*CAP
1 *3052:A 0
2 *3051:X 0.000347568
3 *241:10 0.000347568
4 *241:10 *3159:CLK 4.21594e-06
5 *241:10 *320:8 0
6 *241:10 *423:79 0
7 *184:20 *241:10 0.000361027
*RES
1 *3051:X *241:10 44.2143 
2 *241:10 *3052:A 38 
*END

*D_NET *242 0.0006449
*CONN
*I *3054:A I *D sky130_fd_sc_hd__clkbuf_1
*I *3053:X O *D sky130_fd_sc_hd__mux2_1
*CAP
1 *3054:A 0
2 *3053:X 0.000271383
3 *242:8 0.000271383
4 *242:8 *277:10 0
5 *77:8 *242:8 6.51161e-05
6 *194:104 *242:8 0
7 *202:42 *242:8 3.70187e-05
*RES
1 *3053:X *242:8 43.075 
2 *242:8 *3054:A 38 
*END

*D_NET *243 0.000951828
*CONN
*I *3056:A I *D sky130_fd_sc_hd__clkbuf_1
*I *3055:X O *D sky130_fd_sc_hd__mux2_1
*CAP
1 *3056:A 4.55735e-05
2 *3055:X 0.000326825
3 *243:12 0.000372399
4 *3056:A *278:60 0.000143869
5 *243:12 *278:60 0
6 *243:12 *345:16 0
7 *243:12 *345:28 0
8 *243:12 *373:28 0
9 *3161:D *3056:A 5.56279e-05
10 *206:171 *3056:A 7.53384e-06
*RES
1 *3055:X *243:12 42.4536 
2 *243:12 *3056:A 39.5743 
*END

*D_NET *244 0.000830834
*CONN
*I *3058:A I *D sky130_fd_sc_hd__clkbuf_1
*I *3057:X O *D sky130_fd_sc_hd__mux2_1
*CAP
1 *3058:A 0.000284231
2 *3057:X 0.000108708
3 *244:8 0.000392939
4 *244:8 *289:14 4.49561e-05
*RES
1 *3057:X *244:8 40.2579 
2 *244:8 *3058:A 42.9093 
*END

*D_NET *245 0.000702255
*CONN
*I *3060:A I *D sky130_fd_sc_hd__clkbuf_1
*I *3059:X O *D sky130_fd_sc_hd__mux2_1
*CAP
1 *3060:A 0
2 *3059:X 0.000291633
3 *245:8 0.000291633
4 *80:10 *245:8 0.00010655
5 *194:108 *245:8 1.24376e-05
*RES
1 *3059:X *245:8 28.7586 
2 *245:8 *3060:A 23 
*END

*D_NET *246 0.0015633
*CONN
*I *3062:A I *D sky130_fd_sc_hd__clkbuf_1
*I *3061:X O *D sky130_fd_sc_hd__mux2_1
*CAP
1 *3062:A 3.3043e-05
2 *3061:X 0.000431476
3 *246:10 0.000464519
4 *246:10 *275:39 0.000192087
5 *246:10 *275:47 0.000108681
6 *81:10 *3062:A 2.02517e-05
7 *194:30 *246:10 0.000313244
*RES
1 *3061:X *246:10 45.4986 
2 *246:10 *3062:A 38.8493 
*END

*D_NET *247 0.000277352
*CONN
*I *3064:A I *D sky130_fd_sc_hd__clkbuf_1
*I *3063:X O *D sky130_fd_sc_hd__mux2_1
*CAP
1 *3064:A 6.7015e-05
2 *3063:X 6.7015e-05
3 *3064:A *3063:A0 0
4 *3064:A *319:45 0.000104183
5 *3063:S *3064:A 0
6 *194:125 *3064:A 3.91386e-05
*RES
1 *3063:X *3064:A 47.9471 
*END

*D_NET *248 0.000576105
*CONN
*I *3066:A I *D sky130_fd_sc_hd__clkbuf_1
*I *3065:X O *D sky130_fd_sc_hd__mux2_1
*CAP
1 *3066:A 0.000197967
2 *3065:X 0.000197967
3 *194:82 *3066:A 0.00018017
*RES
1 *3065:X *3066:A 49.5214 
*END

*D_NET *249 0.000857982
*CONN
*I *3068:A I *D sky130_fd_sc_hd__clkbuf_1
*I *3067:X O *D sky130_fd_sc_hd__mux2_1
*CAP
1 *3068:A 3.97463e-05
2 *3067:X 0.000322227
3 *249:14 0.000361973
4 *3068:A *279:52 5.41288e-05
5 *3167:D *3068:A 7.53384e-06
6 *207:62 *249:14 7.23738e-05
*RES
1 *3067:X *249:14 43.075 
2 *249:14 *3068:A 39.0979 
*END

*D_NET *250 0.000254776
*CONN
*I *3070:A I *D sky130_fd_sc_hd__clkbuf_1
*I *3069:X O *D sky130_fd_sc_hd__mux2_1
*CAP
1 *3070:A 7.7298e-05
2 *3069:X 7.7298e-05
3 *3070:A *322:28 0.00010018
*RES
1 *3069:X *3070:A 47.9471 
*END

*D_NET *251 0.00101357
*CONN
*I *3072:A I *D sky130_fd_sc_hd__clkbuf_1
*I *3071:X O *D sky130_fd_sc_hd__mux2_1
*CAP
1 *3072:A 0.000327352
2 *3071:X 8.68133e-05
3 *251:8 0.000414165
4 *3072:A *3169:CLK 1.19187e-05
5 *251:8 *373:28 0
6 *206:181 *3072:A 0.000173325
*RES
1 *3071:X *251:8 39.2014 
2 *251:8 *3072:A 43.1579 
*END

*D_NET *252 0.000364497
*CONN
*I *3074:A I *D sky130_fd_sc_hd__clkbuf_1
*I *3073:X O *D sky130_fd_sc_hd__mux2_1
*CAP
1 *3074:A 0.000110039
2 *3073:X 0.000110039
3 *3074:A *384:27 3.81016e-05
4 *3073:S *3074:A 0.000106318
*RES
1 *3073:X *3074:A 48.9 
*END

*D_NET *253 0.000686784
*CONN
*I *3076:A I *D sky130_fd_sc_hd__clkbuf_1
*I *3075:X O *D sky130_fd_sc_hd__mux2_1
*CAP
1 *3076:A 0
2 *3075:X 0.00032296
3 *253:8 0.00032296
4 *253:8 *277:116 0
5 *253:8 *389:53 0
6 *253:8 *389:71 0
7 *88:8 *253:8 4.08641e-05
8 *202:61 *253:8 0
9 *206:86 *253:8 0
*RES
1 *3075:X *253:8 43.075 
2 *253:8 *3076:A 38 
*END

*D_NET *254 0.000348701
*CONN
*I *3078:A I *D sky130_fd_sc_hd__clkbuf_1
*I *3077:X O *D sky130_fd_sc_hd__mux2_1
*CAP
1 *3078:A 0.00010094
2 *3077:X 0.00010094
3 *198:6 *3078:A 0.000146822
*RES
1 *3077:X *3078:A 48.4236 
*END

*D_NET *255 0.001371
*CONN
*I *3080:A I *D sky130_fd_sc_hd__clkbuf_1
*I *3079:X O *D sky130_fd_sc_hd__mux2_1
*CAP
1 *3080:A 0
2 *3079:X 0.000484402
3 *255:10 0.000484402
4 *255:10 *3170:CLK 2.81066e-05
5 *255:10 *280:93 7.24365e-05
6 *255:10 *280:99 1.34417e-05
7 *255:10 *280:119 0
8 *255:10 *348:102 0.000122208
9 *90:8 *255:10 5.56306e-05
10 *198:84 *255:10 0.000110373
*RES
1 *3079:X *255:10 46.2029 
2 *255:10 *3080:A 38 
*END

*D_NET *256 0.000208465
*CONN
*I *3082:A I *D sky130_fd_sc_hd__clkbuf_1
*I *3081:X O *D sky130_fd_sc_hd__mux2_1
*CAP
1 *3082:A 5.00814e-05
2 *3081:X 5.00814e-05
3 *3082:A *278:50 5.50049e-05
4 *3081:S *3082:A 2.02517e-05
5 *198:104 *3082:A 3.30451e-05
*RES
1 *3081:X *3082:A 47.4707 
*END

*D_NET *257 0.000654678
*CONN
*I *3084:A I *D sky130_fd_sc_hd__clkbuf_1
*I *3083:X O *D sky130_fd_sc_hd__mux2_1
*CAP
1 *3084:A 0.000187222
2 *3083:X 6.07131e-05
3 *257:8 0.000247935
4 *3084:A *281:151 2.93845e-05
5 *257:8 *321:12 8.78864e-05
6 *3175:D *3084:A 4.15358e-05
*RES
1 *3083:X *257:8 39.2014 
2 *257:8 *3084:A 41.5214 
*END

*D_NET *258 0.000993454
*CONN
*I *3086:A I *D sky130_fd_sc_hd__clkbuf_1
*I *3085:X O *D sky130_fd_sc_hd__mux2_1
*CAP
1 *3086:A 0.000364757
2 *3085:X 4.45717e-05
3 *258:8 0.000409329
4 *147:10 *258:8 8.62783e-05
5 *207:133 *258:8 8.85189e-05
*RES
1 *3085:X *258:8 39.2014 
2 *258:8 *3086:A 44.5871 
*END

*D_NET *259 0.000477492
*CONN
*I *3088:A I *D sky130_fd_sc_hd__clkbuf_1
*I *3087:X O *D sky130_fd_sc_hd__mux2_1
*CAP
1 *3088:A 3.84657e-05
2 *3087:X 7.786e-05
3 *259:8 0.000116326
4 *3088:A *346:41 0.00010018
5 *259:8 *304:10 0
6 *259:8 *312:8 8.85189e-05
7 *259:8 *346:41 5.61414e-05
*RES
1 *3087:X *259:8 40.2579 
2 *259:8 *3088:A 39.0979 
*END

*D_NET *260 0.00105385
*CONN
*I *3090:A I *D sky130_fd_sc_hd__clkbuf_1
*I *3089:X O *D sky130_fd_sc_hd__mux2_1
*CAP
1 *3090:A 4.13136e-05
2 *3089:X 0.000396926
3 *260:10 0.00043824
4 *3090:A *268:10 9.84794e-05
5 *260:10 *3186:RESET_B 0
6 *260:10 *3233:A 0
7 *260:10 *305:14 0
8 *260:10 *320:8 0
9 *260:10 *389:18 7.88926e-05
*RES
1 *3089:X *260:10 44.6493 
2 *260:10 *3090:A 39.0979 
*END

*D_NET *261 0.00244154
*CONN
*I *3092:A I *D sky130_fd_sc_hd__clkbuf_1
*I *3091:X O *D sky130_fd_sc_hd__mux2_1
*CAP
1 *3092:A 0
2 *3091:X 0.00109187
3 *261:8 0.00109187
4 *261:8 *3187:CLK 5.83407e-05
5 *261:8 *314:8 5.38135e-05
6 *3187:D *261:8 0.000141954
7 *96:10 *261:8 3.70071e-06
*RES
1 *3091:X *261:8 38.2871 
2 *261:8 *3092:A 23 
*END

*D_NET *262 0.000423571
*CONN
*I *3094:A I *D sky130_fd_sc_hd__clkbuf_1
*I *3093:X O *D sky130_fd_sc_hd__mux2_1
*CAP
1 *3094:A 0.00018695
2 *3093:X 0.00018695
3 *3094:A *3211:A 4.96717e-05
*RES
1 *3093:X *3094:A 49.3764 
*END

*D_NET *263 0.00129441
*CONN
*I *3096:A I *D sky130_fd_sc_hd__clkbuf_1
*I *3095:X O *D sky130_fd_sc_hd__mux2_1
*CAP
1 *3096:A 4.4875e-05
2 *3095:X 0.000249147
3 *263:8 0.000294022
4 *3096:A *319:33 0.00012377
5 *263:8 *3232:A 0
6 *263:8 *300:12 8.40046e-05
7 *263:8 *308:12 0
8 *263:8 *319:22 0
9 *263:8 *348:102 0
10 *194:144 *3096:A 0.000245998
11 *198:39 *263:8 3.47781e-05
12 *198:55 *3096:A 5.50049e-05
13 *198:55 *263:8 0.000162812
*RES
1 *3095:X *263:8 43.075 
2 *263:8 *3096:A 41.0036 
*END

*D_NET *264 0.000193633
*CONN
*I *3098:A I *D sky130_fd_sc_hd__clkbuf_1
*I *3097:X O *D sky130_fd_sc_hd__mux2_1
*CAP
1 *3098:A 6.256e-05
2 *3097:X 6.256e-05
3 *202:106 *3098:A 6.85133e-05
4 *202:120 *3098:A 0
*RES
1 *3097:X *3098:A 47.4707 
*END

*D_NET *265 0.000714533
*CONN
*I *3100:A I *D sky130_fd_sc_hd__clkbuf_1
*I *3099:X O *D sky130_fd_sc_hd__mux2_1
*CAP
1 *3100:A 0
2 *3099:X 0.000297328
3 *265:10 0.000297328
4 *265:10 *281:65 1.14452e-05
5 *265:10 *423:29 7.90568e-05
6 *203:138 *265:10 2.93747e-05
*RES
1 *3099:X *265:10 42.785 
2 *265:10 *3100:A 38 
*END

*D_NET *266 0.000699733
*CONN
*I *3102:A I *D sky130_fd_sc_hd__clkbuf_1
*I *3101:X O *D sky130_fd_sc_hd__mux2_1
*CAP
1 *3102:A 0
2 *3101:X 0.000266094
3 *266:10 0.000266094
4 *266:10 *322:28 1.76557e-05
5 *266:10 *325:18 0
6 *3037:S *266:10 0.00010655
7 *101:8 *266:10 4.334e-05
8 *203:25 *266:10 0
9 *207:133 *266:10 0
*RES
1 *3101:X *266:10 42.785 
2 *266:10 *3102:A 38 
*END

*D_NET *267 0.000959528
*CONN
*I *3104:A I *D sky130_fd_sc_hd__clkbuf_1
*I *3103:X O *D sky130_fd_sc_hd__mux2_1
*CAP
1 *3104:A 4.48997e-05
2 *3103:X 0.000236132
3 *267:10 0.000281032
4 *267:10 *279:88 0.000127263
5 *267:10 *279:96 3.70187e-05
6 *267:10 *333:31 0
7 *3185:D *3104:A 1.32314e-05
8 *202:126 *267:10 0.000182826
9 *206:181 *3104:A 3.71251e-05
*RES
1 *3103:X *267:10 42.3086 
2 *267:10 *3104:A 39.0979 
*END

*D_NET *268 0.000662289
*CONN
*I *3106:A I *D sky130_fd_sc_hd__clkbuf_1
*I *3105:X O *D sky130_fd_sc_hd__mux2_1
*CAP
1 *3106:A 0
2 *3105:X 0.000229228
3 *268:10 0.000229228
4 *268:10 *3186:RESET_B 2.64616e-05
5 *268:10 *3218:A 0
6 *3090:A *268:10 9.84794e-05
7 *95:8 *268:10 7.88926e-05
*RES
1 *3105:X *268:10 27.9507 
2 *268:10 *3106:A 23 
*END

*D_NET *269 0.000198429
*CONN
*I *3108:A I *D sky130_fd_sc_hd__clkbuf_1
*I *3107:X O *D sky130_fd_sc_hd__mux2_1
*CAP
1 *3108:A 9.92145e-05
2 *3107:X 9.92145e-05
*RES
1 *3107:X *3108:A 47.9471 
*END

*D_NET *270 0.0009312
*CONN
*I *3110:A I *D sky130_fd_sc_hd__clkbuf_1
*I *3109:X O *D sky130_fd_sc_hd__mux2_1
*CAP
1 *3110:A 0
2 *3109:X 0.000338758
3 *270:10 0.000338758
4 *270:10 *3109:A0 5.67058e-05
5 *270:10 *3213:A 0.000105934
6 *206:8 *270:10 9.10439e-05
*RES
1 *3109:X *270:10 29.38 
2 *270:10 *3110:A 23 
*END

*D_NET *271 0.000918579
*CONN
*I *3112:A I *D sky130_fd_sc_hd__clkbuf_1
*I *3111:X O *D sky130_fd_sc_hd__mux2_1
*CAP
1 *3112:A 0.000126472
2 *3111:X 0.000280189
3 *271:8 0.000406661
4 *271:8 *3227:A 0
5 *271:8 *344:45 0
6 *271:8 *344:53 0
7 *106:8 *271:8 4.08641e-05
8 *202:71 *271:8 6.4393e-05
9 *206:104 *271:8 0
*RES
1 *3111:X *271:8 43.075 
2 *271:8 *3112:A 40.0507 
*END

*D_NET *272 0.00222625
*CONN
*I *3114:A I *D sky130_fd_sc_hd__clkbuf_1
*I *3113:X O *D sky130_fd_sc_hd__mux2_1
*CAP
1 *3114:A 0.000726596
2 *3113:X 3.89734e-05
3 *272:8 0.000765569
4 *3114:A *278:28 0.000444525
5 *3114:A *278:36 1.41077e-05
6 *272:8 *309:21 8.62876e-05
7 *272:8 *317:29 8.62876e-05
8 *206:136 *3114:A 6.39087e-05
*RES
1 *3113:X *272:8 39.2014 
2 *272:8 *3114:A 49.3514 
*END

*D_NET *273 0.0292389
*CONN
*I *3199:A I *D sky130_fd_sc_hd__clkbuf_16
*I *3198:A I *D sky130_fd_sc_hd__clkbuf_16
*I *3197:A I *D sky130_fd_sc_hd__clkbuf_16
*I *3196:A I *D sky130_fd_sc_hd__clkbuf_16
*I *3195:A I *D sky130_fd_sc_hd__clkbuf_16
*I *3194:A I *D sky130_fd_sc_hd__clkbuf_16
*I *3193:A I *D sky130_fd_sc_hd__clkbuf_16
*I *3192:A I *D sky130_fd_sc_hd__clkbuf_16
*I *3191:X O *D sky130_fd_sc_hd__clkbuf_16
*CAP
1 *3199:A 0.000424511
2 *3198:A 5.02415e-05
3 *3197:A 0
4 *3196:A 0.000191428
5 *3195:A 0
6 *3194:A 0.000128419
7 *3193:A 0
8 *3192:A 0.000135213
9 *3191:X 1.02029e-05
10 *273:114 0.00122841
11 *273:99 0.000724284
12 *273:76 0.00305793
13 *273:66 0.0047776
14 *273:50 0.00117228
15 *273:26 0.00186747
16 *273:14 0.00668474
17 *273:10 0.00580055
18 *3196:A *393:12 6.18117e-05
19 *3196:A *425:28 0.000124098
20 *3199:A *2883:A2 3.7122e-06
21 *3199:A *297:8 0.000326873
22 *3199:A *426:59 6.58557e-05
23 *273:10 *2965:A1 2.33476e-05
24 *273:10 *332:33 1.05658e-05
25 *273:26 *362:24 0.000123593
26 *273:50 *2961:A1 0.000105857
27 *273:50 *318:36 0.00012381
28 *273:76 *393:12 2.62187e-05
29 *273:76 *425:28 9.17136e-05
30 *273:76 *425:73 0.00011263
31 *273:99 *279:10 1.6441e-05
32 *273:114 *297:8 4.75766e-05
33 *2883:B1 *3199:A 1.24906e-05
34 *3129:D *273:99 2.19667e-05
35 *22:17 *273:14 4.32379e-05
36 *119:10 *273:76 0
37 *120:18 *273:76 0.000111789
38 *124:16 *3199:A 0.000234364
39 *124:16 *273:114 5.02657e-05
40 *139:16 *273:76 0.000150341
41 *149:12 *273:26 0.000199382
42 *156:18 *3199:A 0.000130303
43 *166:8 *273:50 5.07359e-05
44 *168:12 *273:26 7.08713e-05
45 *199:63 *273:99 0.000529208
46 *206:40 *273:26 0.000116577
*RES
1 *3191:X *273:10 46.3211 
2 *273:10 *273:14 16.2563 
3 *273:14 *273:26 37.4255 
4 *273:26 *3192:A 25.0507 
5 *273:26 *3193:A 23 
6 *273:14 *273:50 34.8172 
7 *273:50 *3194:A 25.0507 
8 *273:50 *3195:A 23 
9 *273:10 *273:66 11.7053 
10 *273:66 *273:76 23.1298 
11 *273:76 *3196:A 41.5836 
12 *273:76 *273:99 27.4907 
13 *273:99 *3197:A 23 
14 *273:66 *273:114 18.6052 
15 *273:114 *3198:A 38.6214 
16 *273:114 *3199:A 47.3007 
*END

*D_NET *274 0.00934714
*CONN
*I *3184:CLK I *D sky130_fd_sc_hd__dfrtp_1
*I *3152:CLK I *D sky130_fd_sc_hd__dfrtp_1
*I *3144:CLK I *D sky130_fd_sc_hd__dfrtp_1
*I *3148:CLK I *D sky130_fd_sc_hd__dfrtp_1
*I *3156:CLK I *D sky130_fd_sc_hd__dfrtp_1
*I *3188:CLK I *D sky130_fd_sc_hd__dfrtp_1
*I *3180:CLK I *D sky130_fd_sc_hd__dfrtp_1
*I *3192:X O *D sky130_fd_sc_hd__clkbuf_16
*CAP
1 *3184:CLK 0
2 *3152:CLK 0.000104366
3 *3144:CLK 0
4 *3148:CLK 0.000333156
5 *3156:CLK 0
6 *3188:CLK 0
7 *3180:CLK 0
8 *3192:X 0.000154983
9 *274:92 0.000248345
10 *274:77 0.000553062
11 *274:64 0.00100322
12 *274:54 0.00130823
13 *274:29 0.000403207
14 *274:16 0.000958556
15 *274:12 0.000644314
16 *274:10 0.000693815
17 *274:8 0.000531334
18 *274:10 *3029:A1 0
19 *274:10 *340:16 0
20 *274:12 *3029:A1 0
21 *274:16 *3029:A1 0
22 *274:16 *326:14 0
23 *274:29 *3188:RESET_B 0
24 *274:29 *325:10 0.000218943
25 *274:64 *322:10 0.00065331
26 *274:77 *322:10 0.000130277
27 *274:92 *340:16 0.000197479
28 *3144:D *274:64 1.92253e-05
29 *3152:D *3152:CLK 6.17437e-06
30 *3152:D *274:92 6.55954e-05
31 *3180:D *274:29 0.000126708
32 *69:8 *274:92 4.59027e-05
33 *73:10 *274:16 3.81391e-05
34 *97:8 *274:29 4.54033e-05
35 *203:12 *274:10 0.000110023
36 *203:12 *274:54 9.51416e-05
37 *203:12 *274:77 0.000277899
38 *203:12 *274:92 0
39 *230:10 *274:10 0.00021289
40 *230:10 *274:12 0.000157299
41 *230:10 *274:16 1.01436e-05
*RES
1 *3192:X *274:8 40.5271 
2 *274:8 *274:10 6.83571 
3 *274:10 *274:12 2.25786 
4 *274:12 *274:16 26.0614 
5 *274:16 *3180:CLK 23 
6 *274:16 *274:29 38.3479 
7 *274:29 *3188:CLK 23 
8 *274:12 *3156:CLK 38 
9 *274:10 *3148:CLK 42.3293 
10 *274:8 *274:54 2.62036 
11 *274:54 *274:64 34.9375 
12 *274:64 *3144:CLK 23 
13 *274:54 *274:77 21.8875 
14 *274:77 *3152:CLK 24.5743 
15 *274:77 *274:92 35.6136 
16 *274:92 *3184:CLK 23 
*END

*D_NET *275 0.0175407
*CONN
*I *3168:CLK I *D sky130_fd_sc_hd__dfrtp_1
*I *3128:CLK I *D sky130_fd_sc_hd__dfrtp_1
*I *3134:CLK I *D sky130_fd_sc_hd__dfrtp_1
*I *3150:CLK I *D sky130_fd_sc_hd__dfrtp_1
*I *3158:CLK I *D sky130_fd_sc_hd__dfrtp_1
*I *3164:CLK I *D sky130_fd_sc_hd__dfrtp_1
*I *3132:CLK I *D sky130_fd_sc_hd__dfrtp_1
*I *3140:CLK I *D sky130_fd_sc_hd__dfrtp_1
*I *3172:CLK I *D sky130_fd_sc_hd__dfrtp_1
*I *3136:CLK I *D sky130_fd_sc_hd__dfrtp_1
*I *3193:X O *D sky130_fd_sc_hd__clkbuf_16
*CAP
1 *3168:CLK 0.000204087
2 *3128:CLK 8.61142e-05
3 *3134:CLK 3.47749e-05
4 *3150:CLK 8.59026e-05
5 *3158:CLK 3.42813e-05
6 *3164:CLK 6.27539e-05
7 *3132:CLK 0
8 *3140:CLK 8.97984e-05
9 *3172:CLK 0.000200969
10 *3136:CLK 0
11 *3193:X 0.000318505
12 *275:87 0.000113792
13 *275:70 0.00156681
14 *275:47 0.00244901
15 *275:39 0.00128986
16 *275:37 0.00101639
17 *275:35 0.00132791
18 *275:31 0.000740935
19 *275:27 0.00164049
20 *275:14 0.001661
21 *275:10 0.000733197
22 *3128:CLK *344:29 0.000215722
23 *3134:CLK *3128:RESET_B 9.84137e-05
24 *3164:CLK *3164:RESET_B 9.5877e-05
25 *3168:CLK *424:81 7.88828e-05
26 *3172:CLK *299:12 0
27 *275:27 *3136:RESET_B 9.36858e-05
28 *275:27 *344:29 0.000135616
29 *275:27 *400:10 1.24362e-05
30 *275:31 *3128:RESET_B 0.000192113
31 *275:35 *344:29 0
32 *275:37 *344:12 0
33 *275:37 *344:29 0
34 *275:47 *3172:RESET_B 0.000201799
35 *275:47 *3215:A 5.29672e-05
36 *275:47 *299:12 7.65122e-05
37 *275:70 *3140:RESET_B 9.18694e-05
38 *275:70 *299:12 0
39 *275:70 *390:24 2.54046e-05
40 *275:70 *404:12 3.70094e-05
41 *2897:D *3134:CLK 0.000189857
42 *2897:D *275:31 0.00035847
43 *3136:D *275:27 5.58003e-05
44 *3140:D *275:70 5.50106e-05
45 *3168:D *3168:CLK 6.17437e-06
46 *3172:D *3172:CLK 5.88665e-05
47 *57:10 *275:87 8.62876e-05
48 *67:10 *275:37 0.000114083
49 *75:10 *275:37 0
50 *81:10 *275:47 0.000110922
51 *85:10 *3168:CLK 6.22581e-05
52 *89:8 *3172:CLK 2.24366e-06
53 *89:8 *275:70 1.82497e-05
54 *111:12 *3128:CLK 0.000204301
55 *111:12 *275:27 0.000137907
56 *172:20 *275:35 0
57 *172:20 *275:37 0
58 *194:14 *3172:CLK 5.68958e-05
59 *194:14 *275:47 8.31016e-05
60 *194:74 *275:27 0.000401833
61 *198:29 *3158:CLK 1.94812e-05
62 *202:27 *3168:CLK 0
63 *203:60 *3150:CLK 0.000103637
64 *206:136 *3164:CLK 4.96717e-05
65 *246:10 *275:39 0.000192087
66 *246:10 *275:47 0.000108681
*RES
1 *3193:X *275:10 43.6964 
2 *275:10 *275:14 18.9564 
3 *275:14 *3136:CLK 23 
4 *275:14 *275:27 35.5279 
5 *275:27 *275:31 18.9564 
6 *275:31 *275:35 26.0614 
7 *275:35 *275:37 11.7657 
8 *275:37 *275:39 6.13143 
9 *275:39 *275:47 43.6093 
10 *275:47 *3172:CLK 41.6871 
11 *275:47 *275:70 35.6107 
12 *275:70 *3140:CLK 24.4707 
13 *275:70 *275:87 32.0507 
14 *275:87 *3132:CLK 23 
15 *275:39 *3164:CLK 39.595 
16 *275:37 *3158:CLK 38.6214 
17 *275:35 *3150:CLK 40.0507 
18 *275:31 *3134:CLK 25.0507 
19 *275:27 *3128:CLK 40.9621 
20 *275:10 *3168:CLK 42.5364 
*END

*D_NET *276 0.0151639
*CONN
*I *3147:CLK I *D sky130_fd_sc_hd__dfrtp_1
*I *3126:CLK I *D sky130_fd_sc_hd__dfrtp_1
*I *3187:CLK I *D sky130_fd_sc_hd__dfrtp_1
*I *3179:CLK I *D sky130_fd_sc_hd__dfrtp_1
*I *3155:CLK I *D sky130_fd_sc_hd__dfrtp_1
*I *3139:CLK I *D sky130_fd_sc_hd__dfrtp_1
*I *3176:CLK I *D sky130_fd_sc_hd__dfrtp_1
*I *3125:CLK I *D sky130_fd_sc_hd__dfrtp_1
*I *3120:CLK I *D sky130_fd_sc_hd__dfrtp_4
*I *3194:X O *D sky130_fd_sc_hd__clkbuf_16
*CAP
1 *3147:CLK 0.000778085
2 *3126:CLK 2.82203e-05
3 *3187:CLK 0.000246511
4 *3179:CLK 8.88896e-05
5 *3155:CLK 0.000280918
6 *3139:CLK 0
7 *3176:CLK 0
8 *3125:CLK 0.000399743
9 *3120:CLK 0.000108547
10 *3194:X 0.000110836
11 *276:99 0.000798167
12 *276:86 0.00091925
13 *276:78 0.000338536
14 *276:70 0.00136938
15 *276:61 0.000599399
16 *276:48 0.000389066
17 *276:27 0.00115386
18 *276:12 0.00056273
19 *276:10 0.000817968
20 *276:8 0.000696821
21 *3120:CLK *3176:RESET_B 3.47781e-05
22 *3120:CLK *337:31 0.000355822
23 *3120:CLK *343:73 0.000300817
24 *3120:CLK *343:75 5.3304e-05
25 *3120:CLK *343:85 3.47781e-05
26 *3125:CLK *337:37 4.93809e-05
27 *3126:CLK *2909:A1 9.5877e-05
28 *3126:CLK *411:23 4.0523e-05
29 *3147:CLK *2909:A1 0
30 *3147:CLK *3147:RESET_B 7.51159e-05
31 *3155:CLK *338:26 0.000308723
32 *3179:CLK *306:10 2.93845e-05
33 *276:10 *343:85 0.000269323
34 *276:12 *284:14 0
35 *276:12 *343:85 0.000159531
36 *276:27 *3125:RESET_B 8.79516e-05
37 *276:27 *337:37 2.37888e-05
38 *276:27 *343:75 5.3304e-05
39 *276:48 *340:8 0
40 *276:48 *362:16 1.73399e-05
41 *276:61 *2961:A0 0.000262901
42 *276:61 *2961:A1 5.73309e-05
43 *276:61 *2961:S 5.3304e-05
44 *276:61 *318:36 5.78192e-05
45 *276:61 *318:55 0.000148008
46 *276:61 *428:16 0.000354127
47 *276:70 *3155:RESET_B 1.01436e-05
48 *276:70 *306:10 0
49 *276:70 *325:31 0
50 *276:70 *343:85 0.000792885
51 *276:78 *2909:A1 9.11744e-05
52 *276:78 *411:6 0.000272383
53 *276:78 *411:23 3.79854e-05
54 *276:86 *3155:RESET_B 0
55 *276:86 *306:10 0.000178439
56 *276:99 *306:10 0.000396518
57 *2962:A *276:61 0.00026247
58 *3155:D *3155:CLK 3.57857e-05
59 *37:10 *276:61 0.000119467
60 *42:8 *276:48 0
61 *96:10 *3187:CLK 3.22879e-05
62 *96:10 *276:99 0
63 *146:8 *276:70 0
64 *147:10 *276:10 0
65 *147:10 *276:12 0
66 *203:40 *3120:CLK 1.37246e-05
67 *237:10 *3155:CLK 0.000252161
68 *237:10 *276:99 0
69 *261:8 *3187:CLK 5.83407e-05
*RES
1 *3194:X *276:8 39.0979 
2 *276:8 *276:10 3.66643 
3 *276:10 *276:12 2.25786 
4 *276:12 *3120:CLK 42.8057 
5 *276:12 *276:27 19.4329 
6 *276:27 *3125:CLK 28.7586 
7 *276:27 *276:48 37.395 
8 *276:48 *3176:CLK 23 
9 *276:10 *276:61 30.5564 
10 *276:61 *3139:CLK 23 
11 *276:8 *276:70 25.7093 
12 *276:70 *276:78 4.61929 
13 *276:78 *276:86 18.7286 
14 *276:86 *3155:CLK 47.2179 
15 *276:86 *276:99 11.0614 
16 *276:99 *3179:CLK 39.5743 
17 *276:99 *3187:CLK 43.0129 
18 *276:78 *3126:CLK 24.0979 
19 *276:70 *3147:CLK 33.8957 
*END

*D_NET *277 0.0180949
*CONN
*I *3165:CLK I *D sky130_fd_sc_hd__dfrtp_1
*I *3189:CLK I *D sky130_fd_sc_hd__dfrtp_1
*I *3171:CLK I *D sky130_fd_sc_hd__dfrtp_1
*I *3163:CLK I *D sky130_fd_sc_hd__dfrtp_1
*I *3131:CLK I *D sky130_fd_sc_hd__dfrtp_1
*I *3157:CLK I *D sky130_fd_sc_hd__dfrtp_1
*I *3133:CLK I *D sky130_fd_sc_hd__dfrtp_1
*I *3121:CLK I *D sky130_fd_sc_hd__dfrtp_4
*I *3124:CLK I *D sky130_fd_sc_hd__dfrtp_1
*I *3123:CLK I *D sky130_fd_sc_hd__dfrtp_1
*I *3160:CLK I *D sky130_fd_sc_hd__dfrtp_1
*I *3195:X O *D sky130_fd_sc_hd__clkbuf_16
*CAP
1 *3165:CLK 0.000216064
2 *3189:CLK 0
3 *3171:CLK 0
4 *3163:CLK 6.56668e-05
5 *3131:CLK 0.000265382
6 *3157:CLK 0
7 *3133:CLK 0.000638436
8 *3121:CLK 0
9 *3124:CLK 0
10 *3123:CLK 2.05031e-05
11 *3160:CLK 0
12 *3195:X 0
13 *277:123 0.000693732
14 *277:116 0.000727796
15 *277:103 0.000642332
16 *277:90 0.00137705
17 *277:79 0.00118488
18 *277:66 0.00138158
19 *277:54 0.000397948
20 *277:40 0.00093698
21 *277:30 0.000963693
22 *277:17 0.000850797
23 *277:10 0.000719308
24 *277:4 0.00146832
25 *3131:CLK *3131:RESET_B 0
26 *3163:CLK *388:10 6.17437e-06
27 *3165:CLK *3171:RESET_B 0.000192032
28 *3165:CLK *389:30 0.000202832
29 *277:10 *325:49 0.000404038
30 *277:10 *343:57 8.62783e-05
31 *277:10 *428:16 0
32 *277:17 *2890:A2 2.93747e-05
33 *277:17 *427:52 5.50049e-05
34 *277:66 *298:16 0.000213616
35 *277:79 *290:12 3.64337e-05
36 *277:79 *298:16 0.000315742
37 *277:90 *290:12 4.40271e-05
38 *277:90 *342:69 0
39 *277:90 *395:29 3.22467e-05
40 *277:90 *427:70 1.98781e-05
41 *277:90 *427:72 0.000104997
42 *277:103 *3131:RESET_B 0
43 *277:103 *3163:RESET_B 0
44 *277:116 *388:10 0.000166522
45 *277:116 *389:53 3.31683e-05
46 *277:123 *3171:RESET_B 0.000226205
47 *2976:A *277:54 5.50049e-05
48 *2996:A *277:90 7.88828e-05
49 *3012:A *277:17 5.3304e-05
50 *3124:D *277:54 1.40958e-05
51 *3131:D *3131:CLK 7.71797e-06
52 *3133:D *3133:CLK 2.10502e-05
53 *3171:D *277:123 6.05398e-05
54 *3189:D *3165:CLK 0.000275792
55 *38:8 *277:40 8.85189e-05
56 *40:10 *277:40 0.000140949
57 *48:10 *3131:CLK 0.000136486
58 *56:10 *277:10 0.000138708
59 *56:10 *277:17 2.20111e-05
60 *77:8 *277:10 0
61 *80:10 *277:103 0
62 *108:10 *277:90 0.000100061
63 *109:14 *277:40 0
64 *109:14 *277:54 0.000343836
65 *128:8 *277:17 9.28723e-05
66 *128:8 *277:30 1.98624e-05
67 *128:14 *277:40 0.000183589
68 *153:26 *277:54 9.41704e-05
69 *195:115 *277:54 0.000104051
70 *199:162 *277:40 9.84851e-05
71 *199:162 *277:54 0.000120989
72 *200:10 *277:54 0.000131997
73 *202:42 *277:10 0
74 *202:44 *3131:CLK 4.76829e-05
75 *202:44 *277:10 0
76 *202:44 *277:103 0.000204156
77 *202:44 *277:116 1.62615e-05
78 *202:61 *277:116 6.88715e-05
79 *202:71 *3165:CLK 0.000271476
80 *206:59 *277:10 0
81 *206:86 *277:123 0.000289708
82 *207:172 *3131:CLK 9.4713e-05
83 *213:8 *3131:CLK 0
84 *242:8 *277:10 0
85 *253:8 *277:116 0
*RES
1 *3195:X *277:4 23 
2 *277:4 *277:10 44.5829 
3 *277:10 *3160:CLK 23 
4 *277:4 *277:17 13.0086 
5 *277:17 *3123:CLK 23.4971 
6 *277:17 *277:30 16.595 
7 *277:30 *277:40 26.165 
8 *277:40 *277:54 39.6943 
9 *277:54 *3124:CLK 23 
10 *277:40 *3121:CLK 23 
11 *277:30 *277:66 7.89214 
12 *277:66 *3133:CLK 48.6264 
13 *277:66 *277:79 23.5964 
14 *277:79 *3157:CLK 23 
15 *277:79 *277:90 26.4757 
16 *277:90 *3131:CLK 43.7171 
17 *277:90 *277:103 7.89214 
18 *277:103 *3163:CLK 39.0979 
19 *277:103 *277:116 20.7793 
20 *277:116 *3171:CLK 23 
21 *277:116 *277:123 12.0557 
22 *277:123 *3189:CLK 23 
23 *277:123 *3165:CLK 32.6736 
*END

*D_NET *278 0.0156449
*CONN
*I *3122:CLK I *D sky130_fd_sc_hd__dfrtp_4
*I *3166:CLK I *D sky130_fd_sc_hd__dfrtp_1
*I *3137:CLK I *D sky130_fd_sc_hd__dfrtp_1
*I *3142:CLK I *D sky130_fd_sc_hd__dfrtp_1
*I *3174:CLK I *D sky130_fd_sc_hd__dfrtp_1
*I *3169:CLK I *D sky130_fd_sc_hd__dfrtp_1
*I *3161:CLK I *D sky130_fd_sc_hd__dfrtp_1
*I *3182:CLK I *D sky130_fd_sc_hd__dfrtp_1
*I *3190:CLK I *D sky130_fd_sc_hd__dfrtp_1
*I *3196:X O *D sky130_fd_sc_hd__clkbuf_16
*CAP
1 *3122:CLK 0
2 *3166:CLK 0
3 *3137:CLK 0
4 *3142:CLK 4.24211e-05
5 *3174:CLK 3.65708e-05
6 *3169:CLK 0.000128864
7 *3161:CLK 0
8 *3182:CLK 0
9 *3190:CLK 0
10 *3196:X 0.00037296
11 *278:132 0.000354613
12 *278:115 0.00113462
13 *278:102 0.000948281
14 *278:92 0.00191341
15 *278:60 0.00019578
16 *278:50 0.000773478
17 *278:36 0.00016909
18 *278:28 0.000861243
19 *278:20 0.00129549
20 *278:16 0.000502844
21 *278:10 0.000488299
22 *278:8 0.000692185
23 *278:8 *328:20 0.000111933
24 *278:10 *336:10 0
25 *278:16 *309:21 0.000407218
26 *278:16 *336:10 0
27 *278:20 *309:21 0
28 *278:20 *328:14 0
29 *278:28 *3214:A 0.0002263
30 *278:28 *309:21 0
31 *278:28 *328:14 0
32 *278:28 *364:8 4.55577e-05
33 *278:36 *3164:RESET_B 0
34 *278:36 *327:10 0
35 *278:50 *3081:A1 0.000226931
36 *278:60 *345:100 0
37 *278:102 *2900:A1 5.74266e-05
38 *278:102 *296:27 2.33386e-05
39 *278:102 *430:98 0.000228233
40 *278:115 *2875:B1 7.51552e-05
41 *278:115 *430:98 0.000503277
42 *278:132 *2875:B1 0.000124507
43 *278:132 *327:10 0.000186697
44 *278:132 *336:10 0
45 *278:132 *430:14 0.000195248
46 *3018:A *278:8 0.00026025
47 *3056:A *278:60 0.000143869
48 *3072:A *3169:CLK 1.19187e-05
49 *3081:S *278:50 0.000110972
50 *3082:A *278:50 5.50049e-05
51 *3114:A *278:28 0.000444525
52 *3114:A *278:36 1.41077e-05
53 *3161:D *278:60 2.31687e-05
54 *3169:D *3169:CLK 6.05361e-05
55 *3182:D *278:28 7.4416e-05
56 *59:10 *278:8 0.000178517
57 *91:10 *278:20 0
58 *107:10 *278:36 4.08537e-05
59 *133:10 *278:10 0.000105165
60 *133:10 *278:16 8.51329e-05
61 *133:10 *278:92 0.000103062
62 *138:10 *278:102 9.66668e-05
63 *194:30 *278:36 0
64 *198:33 *278:16 8.2338e-05
65 *198:33 *278:20 0.000195248
66 *198:33 *278:92 4.91627e-05
67 *198:33 *278:115 0.000157443
68 *198:104 *278:50 0.000143739
69 *202:120 *278:60 0.000131072
70 *203:71 *278:10 4.6318e-06
71 *203:71 *278:92 0.000189985
72 *203:71 *278:115 3.61904e-05
73 *206:136 *278:28 0.0002836
74 *206:136 *278:36 5.50106e-05
75 *206:150 *278:28 0
76 *206:171 *278:60 0.000129508
77 *206:181 *3169:CLK 5.68958e-05
78 *243:12 *278:60 0
*RES
1 *3196:X *278:8 45.2914 
2 *278:8 *278:10 2.96214 
3 *278:10 *278:16 22.83 
4 *278:16 *278:20 18.6664 
5 *278:20 *278:28 32.1514 
6 *278:28 *278:36 33.2314 
7 *278:36 *3190:CLK 23 
8 *278:28 *3182:CLK 23 
9 *278:20 *278:50 24.6736 
10 *278:50 *278:60 35.2821 
11 *278:60 *3161:CLK 23 
12 *278:50 *3169:CLK 25.5479 
13 *278:16 *3174:CLK 23.6214 
14 *278:10 *3142:CLK 38.6214 
15 *278:8 *278:92 5.42714 
16 *278:92 *278:102 32.3586 
17 *278:102 *3137:CLK 23 
18 *278:92 *278:115 29.4793 
19 *278:115 *3166:CLK 23 
20 *278:115 *278:132 38.7207 
21 *278:132 *3122:CLK 23 
*END

*D_NET *279 0.0155581
*CONN
*I *3153:CLK I *D sky130_fd_sc_hd__dfrtp_1
*I *3145:CLK I *D sky130_fd_sc_hd__dfrtp_1
*I *3185:CLK I *D sky130_fd_sc_hd__dfrtp_1
*I *3177:CLK I *D sky130_fd_sc_hd__dfrtp_1
*I *3129:CLK I *D sky130_fd_sc_hd__dfrtp_1
*I *3117:CLK I *D sky130_fd_sc_hd__dfrtp_4
*I *3135:CLK I *D sky130_fd_sc_hd__dfrtp_1
*I *3167:CLK I *D sky130_fd_sc_hd__dfrtp_1
*I *3138:CLK I *D sky130_fd_sc_hd__dfrtp_1
*I *3116:CLK I *D sky130_fd_sc_hd__dfrtp_4
*I *3197:X O *D sky130_fd_sc_hd__clkbuf_16
*CAP
1 *3153:CLK 0.000252504
2 *3145:CLK 0
3 *3185:CLK 0
4 *3177:CLK 0
5 *3129:CLK 0
6 *3117:CLK 0
7 *3135:CLK 0
8 *3167:CLK 4.01155e-05
9 *3138:CLK 0.000319608
10 *3116:CLK 2.79004e-05
11 *3197:X 0
12 *279:126 0.000325905
13 *279:112 0.000743028
14 *279:96 0.000914254
15 *279:88 0.00169906
16 *279:69 0.000196012
17 *279:52 0.0015905
18 *279:44 0.00144381
19 *279:22 0.000770303
20 *279:16 0.00116306
21 *279:10 0.000946607
22 *279:6 0.00137532
23 *279:4 0.000459347
24 *3116:CLK *3116:RESET_B 5.50106e-05
25 *3138:CLK *320:8 0
26 *3138:CLK *324:10 0
27 *3138:CLK *425:83 0.000400198
28 *3153:CLK *304:29 0.000179571
29 *3153:CLK *409:12 7.032e-05
30 *3153:CLK *417:14 7.64059e-06
31 *3153:CLK *425:139 9.66668e-05
32 *279:16 *320:8 0
33 *279:16 *346:77 0.000418424
34 *279:22 *320:8 0
35 *279:22 *324:10 0
36 *279:44 *346:77 2.93845e-05
37 *279:52 *320:8 0
38 *279:52 *424:14 0.000226306
39 *279:88 *333:31 0
40 *279:88 *369:10 0
41 *279:96 *3177:RESET_B 0.000178813
42 *279:96 *304:8 0.000143059
43 *279:112 *304:29 5.14826e-05
44 *279:126 *304:29 8.92905e-05
45 *279:126 *312:18 0
46 *279:126 *425:12 2.53488e-05
47 *279:126 *425:20 0.000212948
48 *3024:A *279:126 0.000118476
49 *3068:A *279:52 5.41288e-05
50 *3129:D *279:10 3.86731e-05
51 *3138:D *3138:CLK 0.00010018
52 *3145:D *279:126 4.37033e-05
53 *3153:D *3153:CLK 0.000102438
54 *3167:D *279:52 9.88574e-06
55 *3177:D *279:96 5.50049e-05
56 *33:8 *279:52 0
57 *34:10 *279:52 9.46108e-05
58 *46:8 *279:16 8.78864e-05
59 *157:10 *3153:CLK 0.000102971
60 *176:12 *279:112 1.47709e-05
61 *176:12 *279:126 1.00203e-05
62 *199:63 *279:16 5.1934e-05
63 *199:76 *279:16 0
64 *206:181 *279:88 0
65 *207:62 *279:69 4.08641e-05
66 *267:10 *279:88 0.000127263
67 *267:10 *279:96 3.70187e-05
68 *273:99 *279:10 1.6441e-05
*RES
1 *3197:X *279:4 23 
2 *279:4 *279:6 3.95643 
3 *279:6 *279:10 4.32929 
4 *279:10 *279:16 44.2307 
5 *279:16 *279:22 22.395 
6 *279:22 *3116:CLK 38.6214 
7 *279:22 *3138:CLK 45.0429 
8 *279:16 *279:44 1.57429 
9 *279:44 *279:52 49.5336 
10 *279:52 *3167:CLK 23.8493 
11 *279:52 *279:69 33.1486 
12 *279:69 *3135:CLK 23 
13 *279:44 *3117:CLK 23 
14 *279:10 *3129:CLK 23 
15 *279:6 *279:88 29.935 
16 *279:88 *279:96 28.7336 
17 *279:96 *3177:CLK 23 
18 *279:88 *3185:CLK 38 
19 *279:4 *279:112 3.02429 
20 *279:112 *279:126 38.1614 
21 *279:126 *3145:CLK 23 
22 *279:112 *3153:CLK 28.8829 
*END

*D_NET *280 0.0178675
*CONN
*I *3130:CLK I *D sky130_fd_sc_hd__dfrtp_1
*I *3181:CLK I *D sky130_fd_sc_hd__dfrtp_1
*I *3170:CLK I *D sky130_fd_sc_hd__dfrtp_1
*I *3173:CLK I *D sky130_fd_sc_hd__dfrtp_1
*I *3162:CLK I *D sky130_fd_sc_hd__dfrtp_1
*I *3149:CLK I *D sky130_fd_sc_hd__dfrtp_1
*I *3119:CLK I *D sky130_fd_sc_hd__dfrtp_4
*I *3141:CLK I *D sky130_fd_sc_hd__dfrtp_1
*I *3118:CLK I *D sky130_fd_sc_hd__dfrtp_4
*I *3198:X O *D sky130_fd_sc_hd__clkbuf_16
*CAP
1 *3130:CLK 0
2 *3181:CLK 0
3 *3170:CLK 4.86416e-05
4 *3173:CLK 0
5 *3162:CLK 3.42813e-05
6 *3149:CLK 0
7 *3119:CLK 2.9251e-05
8 *3141:CLK 0
9 *3118:CLK 0.000289617
10 *3198:X 6.27375e-05
11 *280:119 0.00121829
12 *280:99 8.60535e-05
13 *280:93 0.000225079
14 *280:89 0.00147199
15 *280:78 0.000688123
16 *280:71 0.00103923
17 *280:59 0.00166321
18 *280:48 0.000413948
19 *280:44 0.000740223
20 *280:33 0.000738005
21 *280:10 0.00112934
22 *280:8 0.00065345
23 *3118:CLK *348:40 0.000109434
24 *3118:CLK *348:48 0.00030099
25 *3170:CLK *3079:A0 4.17736e-05
26 *280:10 *348:40 0.000345564
27 *280:33 *2898:A2 0.000226306
28 *280:33 *3141:RESET_B 9.05654e-05
29 *280:33 *429:43 0.000139352
30 *280:44 *332:93 0
31 *280:44 *348:40 0.000538515
32 *280:48 *300:16 0.000114782
33 *280:59 *300:16 5.76076e-05
34 *280:71 *2918:A1 4.96717e-05
35 *280:71 *2918:A2 5.50106e-05
36 *280:71 *308:12 0.00010018
37 *280:71 *338:43 0
38 *280:71 *413:6 5.3304e-05
39 *280:78 *300:16 0.000301694
40 *280:89 *300:12 0
41 *280:89 *300:16 1.53581e-05
42 *280:93 *3079:A0 0.000315857
43 *280:99 *387:8 0.000166522
44 *280:119 *3173:RESET_B 4.83949e-05
45 *280:119 *3181:RESET_B 0.000263159
46 *280:119 *3237:A 6.343e-05
47 *280:119 *300:6 8.19589e-05
48 *280:119 *300:12 0
49 *280:119 *319:22 0.000271129
50 *3057:S *3162:CLK 1.94812e-05
51 *3141:D *280:33 5.19297e-05
52 *3149:D *280:71 0.000288138
53 *36:10 *280:48 0
54 *79:8 *280:78 0
55 *90:8 *280:119 0
56 *118:16 *280:44 0.000193216
57 *125:10 *3118:CLK 6.16531e-05
58 *125:10 *280:10 0.000354769
59 *125:10 *280:44 0.000225275
60 *125:22 *280:33 0.000784338
61 *126:12 *280:33 0.000153145
62 *137:10 *3118:CLK 6.49713e-05
63 *155:10 *280:71 0.000315852
64 *156:8 *3119:CLK 5.50106e-05
65 *182:12 *280:71 0.000460291
66 *182:14 *280:71 0.0001253
67 *188:10 *3118:CLK 0
68 *194:144 *280:89 2.29192e-05
69 *198:55 *280:119 0.000260859
70 *198:84 *3170:CLK 2.18409e-05
71 *198:84 *280:99 1.252e-05
72 *255:10 *3170:CLK 2.81066e-05
73 *255:10 *280:93 7.24365e-05
74 *255:10 *280:99 1.34417e-05
75 *255:10 *280:119 0
*RES
1 *3198:X *280:8 38.6214 
2 *280:8 *280:10 4.72286 
3 *280:10 *3118:CLK 44.5457 
4 *280:10 *280:33 33.9121 
5 *280:33 *3141:CLK 23 
6 *280:8 *280:44 26.2686 
7 *280:44 *280:48 20.4271 
8 *280:48 *3119:CLK 38.6214 
9 *280:48 *280:59 2.61 
10 *280:59 *280:71 35.8386 
11 *280:71 *3149:CLK 23 
12 *280:59 *280:78 11.7657 
13 *280:78 *3162:CLK 38.6214 
14 *280:78 *280:89 2.96214 
15 *280:89 *280:93 18.48 
16 *280:93 *280:99 33.3143 
17 *280:99 *3173:CLK 23 
18 *280:93 *3170:CLK 24.0979 
19 *280:89 *280:119 35.2586 
20 *280:119 *3181:CLK 23 
21 *280:44 *3130:CLK 23 
*END

*D_NET *281 0.0160071
*CONN
*I *3143:CLK I *D sky130_fd_sc_hd__dfrtp_1
*I *3175:CLK I *D sky130_fd_sc_hd__dfrtp_1
*I *3127:CLK I *D sky130_fd_sc_hd__dfrtp_1
*I *3159:CLK I *D sky130_fd_sc_hd__dfrtp_1
*I *3186:CLK I *D sky130_fd_sc_hd__dfrtp_1
*I *3178:CLK I *D sky130_fd_sc_hd__dfrtp_1
*I *3115:CLK I *D sky130_fd_sc_hd__dfrtp_4
*I *3183:CLK I *D sky130_fd_sc_hd__dfrtp_1
*I *3151:CLK I *D sky130_fd_sc_hd__dfrtp_1
*I *3154:CLK I *D sky130_fd_sc_hd__dfrtp_1
*I *3146:CLK I *D sky130_fd_sc_hd__dfrtp_1
*I *3199:X O *D sky130_fd_sc_hd__clkbuf_16
*CAP
1 *3143:CLK 0
2 *3175:CLK 0
3 *3127:CLK 2.32701e-05
4 *3159:CLK 0.000334301
5 *3186:CLK 0.000540291
6 *3178:CLK 0.00027146
7 *3115:CLK 5.54003e-05
8 *3183:CLK 0
9 *3151:CLK 0
10 *3154:CLK 0
11 *3146:CLK 4.19385e-05
12 *3199:X 0
13 *281:151 0.000154456
14 *281:143 0.00107178
15 *281:115 0.00045362
16 *281:113 0.00127396
17 *281:72 0.000560829
18 *281:65 0.00051186
19 *281:44 0.000901348
20 *281:38 0.00149301
21 *281:32 0.00157561
22 *281:23 0.000404064
23 *281:10 0.00129856
24 *281:4 0.0012789
25 *3159:CLK *320:8 0
26 *3159:CLK *423:79 0
27 *3186:CLK *3236:A 0
28 *3186:CLK *297:8 0
29 *3186:CLK *320:8 0
30 *3186:CLK *380:8 0
31 *3186:CLK *384:40 0.000153369
32 *281:10 *297:8 0
33 *281:10 *320:8 0
34 *281:23 *297:8 0
35 *281:23 *320:8 0
36 *281:32 *297:8 0
37 *281:32 *320:8 0
38 *281:38 *347:95 0.00065935
39 *281:44 *332:118 8.33262e-05
40 *281:65 *347:80 0
41 *281:65 *423:29 0.000139647
42 *281:72 *332:118 5.08899e-05
43 *281:113 *320:8 0
44 *281:115 *320:8 0
45 *281:143 *2884:B1 0.000168975
46 *281:143 *2925:A1 5.3304e-05
47 *281:143 *2925:A2 4.07999e-05
48 *281:143 *347:18 1.55097e-05
49 *281:143 *423:117 5.50106e-05
50 *281:151 *321:12 0
51 *281:151 *423:29 0.000221184
52 *2925:B1 *281:143 9.84794e-05
53 *2988:A *3127:CLK 5.3304e-05
54 *3042:A *3146:CLK 0.000112203
55 *3084:A *281:151 2.93845e-05
56 *3115:D *3115:CLK 3.22879e-05
57 *3127:D *3127:CLK 5.3304e-05
58 *3151:D *281:65 0
59 *3175:D *281:151 2.93845e-05
60 *3178:D *3178:CLK 9.2462e-05
61 *3183:D *281:65 5.50106e-05
62 *3186:D *3186:CLK 3.59554e-06
63 *63:10 *281:10 0.000188926
64 *63:10 *281:23 1.01436e-05
65 *71:10 *281:23 0.000121201
66 *103:8 *3186:CLK 4.08537e-05
67 *123:10 *281:143 0.00017761
68 *156:18 *281:10 0.000158359
69 *156:18 *281:113 2.31797e-05
70 *160:10 *281:113 1.0092e-05
71 *163:10 *3159:CLK 0.000257898
72 *163:10 *281:113 0.000197479
73 *163:10 *281:115 0.000164291
74 *177:12 *281:113 0
75 *181:8 *281:65 0
76 *182:12 *3146:CLK 5.41288e-05
77 *185:10 *281:72 0.000141879
78 *233:10 *281:65 0
79 *241:10 *3159:CLK 4.21594e-06
80 *265:10 *281:65 1.14452e-05
*RES
1 *3199:X *281:4 23 
2 *281:4 *281:10 31.9236 
3 *281:10 *3146:CLK 39.595 
4 *281:10 *281:23 5.42714 
5 *281:23 *3154:CLK 38 
6 *281:23 *281:32 3.31429 
7 *281:32 *281:38 45.8671 
8 *281:38 *281:44 22.7471 
9 *281:44 *3151:CLK 23 
10 *281:44 *281:65 39.5907 
11 *281:65 *3183:CLK 23 
12 *281:38 *281:72 5.075 
13 *281:72 *3115:CLK 39.0979 
14 *281:72 *3178:CLK 42.6814 
15 *281:32 *3186:CLK 48.6679 
16 *281:4 *281:113 20.4686 
17 *281:113 *281:115 2.25786 
18 *281:115 *3159:CLK 44.5457 
19 *281:115 *3127:CLK 38.6214 
20 *281:113 *281:143 31.3643 
21 *281:143 *281:151 33.5836 
22 *281:151 *3175:CLK 23 
23 *281:143 *3143:CLK 23 
*END

*D_NET *282 0.00179038
*CONN
*I *2887:A I *D sky130_fd_sc_hd__and3_1
*I *3212:A I *D sky130_fd_sc_hd__dlygate4sd3_1
*I *3123:Q O *D sky130_fd_sc_hd__dfrtp_1
*CAP
1 *2887:A 0
2 *3212:A 0
3 *3123:Q 0.000247174
4 *282:19 0.000573533
5 *282:6 0.000820706
6 *282:19 *3202:A 0
7 *282:19 *343:10 9.33529e-06
8 *282:19 *343:31 0
9 *282:19 *344:45 0
10 *223:10 *282:19 0.000139629
*RES
1 *3123:Q *282:6 26.9564 
2 *282:6 *3212:A 23 
3 *282:6 *282:19 41.4757 
4 *282:19 *2887:A 23 
*END

*D_NET *283 0.00183231
*CONN
*I *3241:A I *D sky130_fd_sc_hd__dlygate4sd3_1
*I *2907:A I *D sky130_fd_sc_hd__and3_1
*I *3124:Q O *D sky130_fd_sc_hd__dfrtp_1
*CAP
1 *3241:A 0.000216474
2 *2907:A 0.0001893
3 *3124:Q 9.73551e-05
4 *283:8 0.000503129
5 *2907:A *2949:A 3.18198e-05
6 *2907:A *327:10 0
7 *3241:A *2949:A 0.00017184
8 *3241:A *327:10 0
9 *283:8 *335:29 5.3304e-05
10 *283:8 *336:29 6.37603e-05
11 *283:8 *429:18 0.000356718
12 *3191:A *2907:A 0
13 *153:16 *2907:A 0
14 *153:16 *283:8 5.50049e-05
15 *163:24 *3241:A 5.50106e-05
16 *199:118 *3241:A 2.93845e-05
17 *223:10 *3241:A 9.21347e-06
*RES
1 *3124:Q *283:8 41.9564 
2 *283:8 *2907:A 40.9621 
3 *283:8 *3241:A 42.0807 
*END

*D_NET *284 0.00275728
*CONN
*I *2927:A I *D sky130_fd_sc_hd__and3_1
*I *3220:A I *D sky130_fd_sc_hd__dlygate4sd3_1
*I *3125:Q O *D sky130_fd_sc_hd__dfrtp_1
*CAP
1 *2927:A 0
2 *3220:A 0
3 *3125:Q 0.000140252
4 *284:29 0.000582813
5 *284:14 0.000219167
6 *284:6 0.000942232
7 *284:6 *337:31 9.91798e-05
8 *284:14 *3176:RESET_B 3.31683e-05
9 *284:29 *2980:A1 5.56279e-05
10 *284:29 *318:36 0.000192077
11 *284:29 *337:31 0.000289852
12 *2927:B *284:29 4.33731e-05
13 *2962:A *284:14 3.91386e-05
14 *147:10 *284:14 0
15 *154:8 *284:29 0.000120396
16 *207:133 *284:29 0
17 *276:12 *284:14 0
*RES
1 *3125:Q *284:6 25.0507 
2 *284:6 *284:14 33.8114 
3 *284:14 *3220:A 23 
4 *284:6 *284:29 40.5229 
5 *284:29 *2927:A 23 
*END

*D_NET *285 0.000714563
*CONN
*I *3209:A I *D sky130_fd_sc_hd__dlygate4sd3_1
*I *2947:A I *D sky130_fd_sc_hd__and3_1
*I *3126:Q O *D sky130_fd_sc_hd__dfrtp_1
*CAP
1 *3209:A 0
2 *2947:A 0
3 *3126:Q 6.07651e-05
4 *285:23 0.000164613
5 *285:8 0.000225378
6 *285:8 *338:24 4.21023e-05
7 *285:23 *2929:A2 2.93845e-05
8 *285:23 *338:24 5.67058e-05
9 *165:8 *285:23 5.50106e-05
10 *202:44 *285:23 0
11 *206:59 *285:23 8.06039e-05
*RES
1 *3126:Q *285:8 24.1186 
2 *285:8 *2947:A 23 
3 *285:8 *285:23 33.5007 
4 *285:23 *3209:A 23 
*END

*D_NET *286 0.00273572
*CONN
*I *2884:B1 I *D sky130_fd_sc_hd__o21ai_1
*I *3225:A I *D sky130_fd_sc_hd__dlygate4sd3_1
*I *3159:Q O *D sky130_fd_sc_hd__dfrtp_1
*CAP
1 *2884:B1 0.000405782
2 *3225:A 0.000153617
3 *3159:Q 0
4 *286:6 0.000559399
5 *2884:B1 *3159:RESET_B 0.000404056
6 *2884:B1 *347:18 0
7 *3225:A *3159:RESET_B 3.70187e-05
8 *3225:A *351:31 5.70419e-05
9 *158:10 *2884:B1 0.000574564
10 *158:10 *3225:A 0.000276784
11 *184:20 *3225:A 9.84851e-05
12 *281:143 *2884:B1 0.000168975
*RES
1 *3159:Q *286:6 38 
2 *286:6 *3225:A 42.7643 
3 *286:6 *2884:B1 49.3721 
*END

*D_NET *287 0.00181417
*CONN
*I *2873:B1 I *D sky130_fd_sc_hd__o21ai_1
*I *3221:A I *D sky130_fd_sc_hd__dlygate4sd3_1
*I *3160:Q O *D sky130_fd_sc_hd__dfrtp_1
*CAP
1 *2873:B1 0
2 *3221:A 0
3 *3160:Q 6.33217e-05
4 *287:27 0.000453767
5 *287:6 0.000517088
6 *287:6 *3160:RESET_B 0.000180476
7 *287:27 *2873:A1 1.12863e-05
8 *287:27 *3160:RESET_B 5.40241e-05
9 *287:27 *424:49 0.000100061
10 *112:8 *287:27 5.68958e-05
11 *128:14 *287:27 6.1695e-05
12 *153:26 *287:6 0.000180476
13 *153:26 *287:27 4.65096e-05
14 *194:93 *287:27 8.85753e-05
*RES
1 *3160:Q *287:6 26.48 
2 *287:6 *3221:A 23 
3 *287:6 *287:27 39.5907 
4 *287:27 *2873:B1 23 
*END

*D_NET *288 0.0028409
*CONN
*I *2880:B1 I *D sky130_fd_sc_hd__o21ai_1
*I *3229:A I *D sky130_fd_sc_hd__dlygate4sd3_1
*I *3161:Q O *D sky130_fd_sc_hd__dfrtp_1
*CAP
1 *2880:B1 0
2 *3229:A 0.000234558
3 *3161:Q 0
4 *288:21 0.000875792
5 *288:4 0.00111035
6 *288:21 *296:10 5.0135e-05
7 *288:21 *296:27 0.000213337
8 *288:21 *333:31 0
9 *288:21 *425:20 0.000356724
10 *202:120 *288:21 0
*RES
1 *3161:Q *288:4 23 
2 *288:4 *3229:A 27.3293 
3 *288:4 *288:21 47.4829 
4 *288:21 *2880:B1 23 
*END

*D_NET *289 0.00347071
*CONN
*I *3230:A I *D sky130_fd_sc_hd__dlygate4sd3_1
*I *2882:B1 I *D sky130_fd_sc_hd__o21ai_1
*I *3162:Q O *D sky130_fd_sc_hd__dfrtp_1
*CAP
1 *3230:A 0.00038952
2 *2882:B1 0
3 *3162:Q 0.00015447
4 *289:14 0.000700511
5 *289:10 0.0012445
6 *3230:A *3057:A0 8.16253e-05
7 *3230:A *3186:RESET_B 0.000232873
8 *3230:A *3236:A 2.72055e-05
9 *3230:A *297:8 6.60455e-05
10 *289:14 *297:8 0.000363562
11 *289:14 *394:34 9.5956e-06
12 *3057:S *289:10 8.54584e-05
13 *156:18 *289:14 0
14 *175:10 *289:14 7.03869e-05
15 *244:8 *289:14 4.49561e-05
*RES
1 *3162:Q *289:10 41.0243 
2 *289:10 *289:14 31.3436 
3 *289:14 *2882:B1 23 
4 *289:10 *3230:A 46.9279 
*END

*D_NET *290 0.00194566
*CONN
*I *3222:A I *D sky130_fd_sc_hd__dlygate4sd3_1
*I *2869:B1 I *D sky130_fd_sc_hd__o21ai_1
*I *3163:Q O *D sky130_fd_sc_hd__dfrtp_1
*CAP
1 *3222:A 0.000277036
2 *2869:B1 0
3 *3163:Q 0
4 *290:12 0.0005332
5 *290:4 0.000810236
6 *290:12 *298:16 0.000123679
7 *290:12 *371:8 3.76854e-05
8 *290:12 *389:71 0
9 *290:12 *427:70 1.3523e-05
10 *108:10 *290:12 6.98442e-05
11 *277:79 *290:12 3.64337e-05
12 *277:90 *290:12 4.40271e-05
*RES
1 *3163:Q *290:4 23 
2 *290:4 *290:12 40.4193 
3 *290:12 *2869:B1 23 
4 *290:4 *3222:A 27.8057 
*END

*D_NET *291 0.0035568
*CONN
*I *2871:B1 I *D sky130_fd_sc_hd__o21ai_1
*I *3226:A I *D sky130_fd_sc_hd__dlygate4sd3_1
*I *3164:Q O *D sky130_fd_sc_hd__dfrtp_1
*CAP
1 *2871:B1 0.000333661
2 *3226:A 0.000170984
3 *3164:Q 0.000184849
4 *291:10 0.000689495
5 *3226:A *3061:A0 0.000180218
6 *3226:A *3061:A1 0.00012377
7 *291:10 *3061:A0 0.000164282
8 *194:30 *3226:A 0.000100488
9 *198:19 *2871:B1 0.000222104
10 *198:19 *291:10 0.000188916
11 *198:142 *2871:B1 0.000401146
12 *202:106 *3226:A 0.000655835
13 *206:136 *291:10 0.000141052
*RES
1 *3164:Q *291:10 42.1843 
2 *291:10 *3226:A 45.7886 
3 *291:10 *2871:B1 46.2443 
*END

*D_NET *292 0.00350958
*CONN
*I *3235:A I *D sky130_fd_sc_hd__dlygate4sd3_1
*I *2878:B1 I *D sky130_fd_sc_hd__o21ai_1
*I *3165:Q O *D sky130_fd_sc_hd__dfrtp_1
*CAP
1 *3235:A 5.85113e-05
2 *2878:B1 0
3 *3165:Q 0.000255827
4 *292:12 0.000896073
5 *292:8 0.00121041
6 *3235:A *319:33 0.000123944
7 *292:8 *3165:RESET_B 0
8 *292:8 *335:12 0.000116956
9 *292:12 *2999:A0 0
10 *292:12 *3133:RESET_B 0
11 *292:12 *3165:RESET_B 0
12 *292:12 *327:27 0.00012139
13 *292:12 *335:12 0.000414403
14 *292:12 *342:71 0
15 *292:12 *397:8 8.57577e-05
16 *194:144 *3235:A 0.000226306
*RES
1 *3165:Q *292:8 43.075 
2 *292:8 *292:12 34.865 
3 *292:12 *2878:B1 23 
4 *292:8 *3235:A 40.5271 
*END

*D_NET *293 0.00240029
*CONN
*I *3217:A I *D sky130_fd_sc_hd__dlygate4sd3_1
*I *2875:B1 I *D sky130_fd_sc_hd__o21ai_1
*I *3166:Q O *D sky130_fd_sc_hd__dfrtp_1
*CAP
1 *3217:A 0.000231603
2 *2875:B1 0.000832267
3 *3166:Q 0
4 *293:4 0.00106387
5 *2875:B1 *3166:RESET_B 7.28922e-05
6 *278:115 *2875:B1 7.51552e-05
7 *278:132 *2875:B1 0.000124507
*RES
1 *3166:Q *293:4 23 
2 *293:4 *2875:B1 34.4964 
3 *293:4 *3217:A 27.3293 
*END

*D_NET *294 0.00269919
*CONN
*I *2904:B1 I *D sky130_fd_sc_hd__o21ai_1
*I *3216:A I *D sky130_fd_sc_hd__dlygate4sd3_1
*I *3167:Q O *D sky130_fd_sc_hd__dfrtp_1
*CAP
1 *2904:B1 0
2 *3216:A 0.000230082
3 *3167:Q 3.98981e-05
4 *294:25 0.000556923
5 *294:6 0.000826903
6 *3216:A *3167:RESET_B 5.50049e-05
7 *294:6 *3167:RESET_B 2.47128e-05
8 *294:25 *3135:RESET_B 0.000111852
9 *294:25 *323:22 0.000244598
10 *294:25 *351:31 2.93747e-05
11 *294:25 *399:10 0
12 *184:20 *294:25 0.000579845
*RES
1 *3167:Q *294:6 23.6214 
2 *294:6 *3216:A 26.9979 
3 *294:6 *294:25 44.2307 
4 *294:25 *2904:B1 23 
*END

*D_NET *295 0.00104123
*CONN
*I *3231:A I *D sky130_fd_sc_hd__dlygate4sd3_1
*I *2893:B1 I *D sky130_fd_sc_hd__o21ai_1
*I *3168:Q O *D sky130_fd_sc_hd__dfrtp_1
*CAP
1 *3231:A 6.73977e-05
2 *2893:B1 2.01797e-05
3 *3168:Q 9.19722e-05
4 *295:10 8.75773e-05
5 *295:8 9.19722e-05
6 *2893:B1 *400:37 9.84794e-05
7 *3231:A *400:37 0.000183733
8 *295:8 *424:68 3.63546e-05
9 *2937:D *3231:A 2.32101e-05
10 *3006:A *2893:B1 9.84794e-05
11 *3006:A *3231:A 4.08664e-05
12 *131:10 *3231:A 9.00923e-05
13 *218:8 *295:8 0.000110913
*RES
1 *3168:Q *295:8 39.9057 
2 *295:8 *295:10 15 
3 *295:10 *2893:B1 24.0979 
4 *295:10 *3231:A 25.5271 
*END

*D_NET *296 0.00362051
*CONN
*I *2900:B1 I *D sky130_fd_sc_hd__o21ai_1
*I *3224:A I *D sky130_fd_sc_hd__dlygate4sd3_1
*I *3169:Q O *D sky130_fd_sc_hd__dfrtp_1
*CAP
1 *2900:B1 0
2 *3224:A 6.10379e-05
3 *3169:Q 0.000170175
4 *296:27 0.00119101
5 *296:10 0.00142222
6 *3224:A *373:20 9.91895e-05
7 *296:10 *324:10 0
8 *296:27 *2900:A1 3.82958e-05
9 *296:27 *2991:A1 3.20631e-05
10 *296:27 *324:10 0
11 *296:27 *393:23 3.6608e-05
12 *3137:D *296:27 6.15983e-05
13 *138:10 *296:27 9.64634e-06
14 *202:120 *296:10 5.56203e-05
15 *202:126 *3224:A 9.91895e-05
16 *206:181 *296:10 5.70419e-05
17 *278:102 *296:27 2.33386e-05
18 *288:21 *296:10 5.0135e-05
19 *288:21 *296:27 0.000213337
*RES
1 *3169:Q *296:10 41.3557 
2 *296:10 *3224:A 40.0507 
3 *296:10 *296:27 35.7143 
4 *296:27 *2900:B1 23 
*END

*D_NET *297 0.00616443
*CONN
*I *3236:A I *D sky130_fd_sc_hd__dlygate4sd3_1
*I *2902:B1 I *D sky130_fd_sc_hd__o21ai_1
*I *3170:Q O *D sky130_fd_sc_hd__dfrtp_1
*CAP
1 *3236:A 0.000434431
2 *2902:B1 0
3 *3170:Q 0
4 *297:8 0.00165587
5 *297:6 0.0020903
6 *3236:A *3057:A0 0
7 *3236:A *380:8 1.14452e-05
8 *3236:A *384:10 0
9 *3236:A *386:8 8.62876e-05
10 *3236:A *389:22 0.000228909
11 *297:8 *324:31 0
12 *297:8 *380:8 8.62876e-05
13 *297:8 *426:23 2.08324e-05
14 *297:8 *426:38 4.83941e-05
15 *297:8 *426:59 0.000133159
16 *3089:S *3236:A 0.000228909
17 *3186:CLK *3236:A 0
18 *3186:CLK *297:8 0
19 *3199:A *297:8 0.000326873
20 *3230:A *3236:A 2.72055e-05
21 *3230:A *297:8 6.60455e-05
22 *120:18 *297:8 0
23 *124:16 *297:8 0.00016869
24 *175:10 *297:8 0.000139647
25 *273:114 *297:8 4.75766e-05
26 *281:10 *297:8 0
27 *281:23 *297:8 0
28 *281:32 *297:8 0
29 *289:14 *297:8 0.000363562
*RES
1 *3170:Q *297:6 38 
2 *297:6 *297:8 36.0636 
3 *297:8 *2902:B1 38 
4 *297:6 *3236:A 47.7771 
*END

*D_NET *298 0.00514445
*CONN
*I *3234:A I *D sky130_fd_sc_hd__dlygate4sd3_1
*I *2889:B1 I *D sky130_fd_sc_hd__o21ai_1
*I *3171:Q O *D sky130_fd_sc_hd__dfrtp_1
*CAP
1 *3234:A 1.50079e-05
2 *2889:B1 0
3 *3171:Q 0.000292834
4 *298:16 0.00136761
5 *298:10 0.00167545
6 *298:10 *3171:RESET_B 0.000230476
7 *298:10 *344:53 0
8 *298:10 *389:30 3.83778e-05
9 *298:16 *342:56 0
10 *298:16 *342:98 0
11 *298:16 *371:8 8.62876e-05
12 *298:16 *389:71 0
13 *298:16 *427:44 0.000280621
14 *3075:S *3234:A 5.50049e-05
15 *74:10 *298:16 0.00014411
16 *109:14 *298:16 0.000250626
17 *206:86 *298:10 0
18 *206:96 *3234:A 5.50049e-05
19 *277:66 *298:16 0.000213616
20 *277:79 *298:16 0.000315742
21 *290:12 *298:16 0.000123679
*RES
1 *3171:Q *298:10 42.785 
2 *298:10 *298:16 46.9621 
3 *298:16 *2889:B1 23 
4 *298:10 *3234:A 38.6214 
*END

*D_NET *299 0.0032518
*CONN
*I *3215:A I *D sky130_fd_sc_hd__dlygate4sd3_1
*I *2891:B1 I *D sky130_fd_sc_hd__o21ai_1
*I *3172:Q O *D sky130_fd_sc_hd__dfrtp_1
*CAP
1 *3215:A 0.000120146
2 *2891:B1 0
3 *3172:Q 0
4 *299:12 0.0010333
5 *299:4 0.00115344
6 *3215:A *3172:RESET_B 0.000187129
7 *299:12 *3172:RESET_B 0.000180514
8 *299:12 *390:24 1.85903e-05
9 *299:12 *404:12 0
10 *3172:CLK *299:12 0
11 *194:14 *299:12 1.00084e-05
12 *194:20 *299:12 0.000419189
13 *275:47 *3215:A 5.29672e-05
14 *275:47 *299:12 7.65122e-05
15 *275:70 *299:12 0
*RES
1 *3172:Q *299:4 23 
2 *299:4 *299:12 35.1136 
3 *299:12 *2891:B1 38 
4 *299:4 *3215:A 26.48 
*END

*D_NET *300 0.00753474
*CONN
*I *3237:A I *D sky130_fd_sc_hd__dlygate4sd3_1
*I *2898:B1 I *D sky130_fd_sc_hd__o21ai_1
*I *3173:Q O *D sky130_fd_sc_hd__dfrtp_1
*CAP
1 *3237:A 0.000474301
2 *2898:B1 0
3 *3173:Q 0.000132244
4 *300:16 0.000938705
5 *300:12 0.00118864
6 *300:6 0.000856477
7 *300:6 *3173:RESET_B 1.94432e-05
8 *300:6 *3181:RESET_B 5.41288e-05
9 *300:12 *319:22 5.50676e-05
10 *3073:S *3237:A 0.000119299
11 *3173:D *3237:A 0.00010779
12 *194:144 *300:12 8.62783e-05
13 *198:33 *300:16 0.00231534
14 *198:39 *300:12 0.000215865
15 *198:39 *300:16 2.34364e-05
16 *198:55 *300:6 0.000228903
17 *263:8 *300:12 8.40046e-05
18 *280:48 *300:16 0.000114782
19 *280:59 *300:16 5.76076e-05
20 *280:78 *300:16 0.000301694
21 *280:89 *300:12 0
22 *280:89 *300:16 1.53581e-05
23 *280:119 *3237:A 6.343e-05
24 *280:119 *300:6 8.19589e-05
25 *280:119 *300:12 0
*RES
1 *3173:Q *300:6 26.9564 
2 *300:6 *300:12 20.8725 
3 *300:12 *300:16 46.3096 
4 *300:16 *2898:B1 23 
5 *300:6 *3237:A 32.3629 
*END

*D_NET *301 0.0018294
*CONN
*I *3240:A I *D sky130_fd_sc_hd__dlygate4sd3_1
*I *2895:B1 I *D sky130_fd_sc_hd__o21ai_1
*I *3174:Q O *D sky130_fd_sc_hd__dfrtp_1
*CAP
1 *3240:A 5.98602e-05
2 *2895:B1 0.000269999
3 *3174:Q 0.000158839
4 *301:10 0.00032986
5 *301:8 0.000158839
6 *2895:B1 *2895:A2 5.67058e-05
7 *207:39 *2895:B1 0.000664191
8 *207:39 *3240:A 0.000131105
*RES
1 *3174:Q *301:8 40.2579 
2 *301:8 *301:10 15 
3 *301:10 *2895:B1 30.2914 
4 *301:10 *3240:A 24.5743 
*END

*D_NET *302 0.00251283
*CONN
*I *3244:A I *D sky130_fd_sc_hd__dlygate4sd3_1
*I *2924:B1 I *D sky130_fd_sc_hd__o21ai_1
*I *3175:Q O *D sky130_fd_sc_hd__dfrtp_1
*CAP
1 *3244:A 0
2 *2924:B1 0
3 *3175:Q 0
4 *302:25 0.000387746
5 *302:12 0.000402169
6 *302:4 0.000789915
7 *302:12 *323:12 0.000101472
8 *302:12 *347:52 0.000167443
9 *302:12 *347:72 6.15434e-05
10 *302:12 *348:145 0.000273648
11 *302:12 *407:14 0.000275586
12 *302:25 *348:16 5.3304e-05
*RES
1 *3175:Q *302:4 23 
2 *302:4 *302:12 39.3629 
3 *302:12 *2924:B1 23 
4 *302:4 *302:25 35.3857 
5 *302:25 *3244:A 23 
*END

*D_NET *303 0.00208479
*CONN
*I *3243:A I *D sky130_fd_sc_hd__dlygate4sd3_1
*I *2913:B1 I *D sky130_fd_sc_hd__o21ai_1
*I *3176:Q O *D sky130_fd_sc_hd__dfrtp_1
*CAP
1 *3243:A 6.72116e-05
2 *2913:B1 0.000225926
3 *3176:Q 0.0001292
4 *303:8 0.000422338
5 *2913:B1 *2913:A2 5.50106e-05
6 *2913:B1 *2914:A1 5.3304e-05
7 *2913:B1 *362:24 0.000273453
8 *2913:B1 *424:107 3.47781e-05
9 *303:8 *362:16 4.57742e-05
10 *151:10 *2913:B1 8.62876e-05
11 *154:8 *2913:B1 2.72055e-05
12 *154:8 *3243:A 4.23714e-05
13 *207:133 *2913:B1 0.00049336
14 *207:133 *3243:A 0.000128574
*RES
1 *3176:Q *303:8 39.5743 
2 *303:8 *2913:B1 46.2236 
3 *303:8 *3243:A 39.9057 
*END

*D_NET *304 0.00323843
*CONN
*I *2920:B1 I *D sky130_fd_sc_hd__o21ai_1
*I *3223:A I *D sky130_fd_sc_hd__dlygate4sd3_1
*I *3177:Q O *D sky130_fd_sc_hd__dfrtp_1
*CAP
1 *2920:B1 0
2 *3223:A 0
3 *3177:Q 0.000157868
4 *304:29 0.000581365
5 *304:10 0.00108048
6 *304:8 0.000656982
7 *304:10 *3177:RESET_B 0
8 *304:10 *312:8 0
9 *304:10 *312:18 0
10 *304:10 *369:10 0
11 *304:10 *372:8 0
12 *304:29 *312:18 0
13 *304:29 *369:10 0
14 *304:29 *417:14 2.83509e-05
15 *3153:CLK *304:29 0.000179571
16 *176:12 *304:29 0.000203103
17 *206:181 *304:10 6.68793e-05
18 *259:8 *304:10 0
19 *279:96 *304:8 0.000143059
20 *279:112 *304:29 5.14826e-05
21 *279:126 *304:29 8.92905e-05
*RES
1 *3177:Q *304:8 41.9564 
2 *304:8 *304:10 8.94857 
3 *304:10 *3223:A 38 
4 *304:10 *304:29 27.8636 
5 *304:29 *2920:B1 23 
*END

*D_NET *305 0.00374673
*CONN
*I *3233:A I *D sky130_fd_sc_hd__dlygate4sd3_1
*I *2922:B1 I *D sky130_fd_sc_hd__o21ai_1
*I *3178:Q O *D sky130_fd_sc_hd__dfrtp_1
*CAP
1 *3233:A 0.000563658
2 *2922:B1 0
3 *3178:Q 0.00012035
4 *305:14 0.000638698
5 *305:8 0.00132271
6 *3233:A *3089:A1 0
7 *3233:A *3105:A1 0
8 *3233:A *320:8 0
9 *3233:A *389:18 0.000185751
10 *305:8 *384:40 5.04167e-05
11 *305:14 *2922:A2 0.000143655
12 *305:14 *3105:A1 0
13 *305:14 *3186:RESET_B 0
14 *305:14 *313:8 4.06408e-05
15 *305:14 *313:16 0.000392768
16 *305:14 *320:8 0
17 *3089:S *3233:A 0.000227208
18 *175:18 *305:14 6.08751e-05
19 *206:112 *3233:A 0
20 *260:10 *3233:A 0
21 *260:10 *305:14 0
*RES
1 *3178:Q *305:8 40.0507 
2 *305:8 *305:14 30.1007 
3 *305:14 *2922:B1 23 
4 *305:8 *3233:A 49.3307 
*END

*D_NET *306 0.00379042
*CONN
*I *3238:A I *D sky130_fd_sc_hd__dlygate4sd3_1
*I *2909:B1 I *D sky130_fd_sc_hd__o21ai_1
*I *3179:Q O *D sky130_fd_sc_hd__dfrtp_1
*CAP
1 *3238:A 0.000245907
2 *2909:B1 0
3 *3179:Q 0
4 *306:10 0.00128651
5 *306:4 0.00153242
6 *306:10 *3043:A1 2.36844e-05
7 *306:10 *338:24 4.08537e-05
8 *3179:CLK *306:10 2.93845e-05
9 *3179:D *306:10 5.67058e-05
10 *207:149 *306:10 0
11 *207:172 *306:10 0
12 *276:70 *306:10 0
13 *276:86 *306:10 0.000178439
14 *276:99 *306:10 0.000396518
*RES
1 *3179:Q *306:4 23 
2 *306:4 *306:10 38.2 
3 *306:10 *2909:B1 38 
4 *306:4 *3238:A 27.3293 
*END

*D_NET *307 0.00358752
*CONN
*I *2911:B1 I *D sky130_fd_sc_hd__o21ai_1
*I *3211:A I *D sky130_fd_sc_hd__dlygate4sd3_1
*I *3180:Q O *D sky130_fd_sc_hd__dfrtp_1
*CAP
1 *2911:B1 0.000446013
2 *3211:A 0.000456725
3 *3180:Q 0.000162437
4 *307:10 0.00106517
5 *2911:B1 *325:10 0
6 *2911:B1 *339:38 0
7 *2911:B1 *339:54 0.000187335
8 *2911:B1 *339:56 0.000620099
9 *3211:A *3093:A0 4.95081e-05
10 *307:10 *3180:RESET_B 1.39317e-05
11 *307:10 *325:10 0
12 *307:10 *339:56 0.000138727
13 *3045:S *2911:B1 0
14 *3093:S *3211:A 0.000397899
15 *3094:A *3211:A 4.96717e-05
16 *97:8 *307:10 0
*RES
1 *3180:Q *307:10 40.5271 
2 *307:10 *3211:A 47.2386 
3 *307:10 *2911:B1 49.4136 
*END

*D_NET *308 0.00330367
*CONN
*I *3232:A I *D sky130_fd_sc_hd__dlygate4sd3_1
*I *2918:B1 I *D sky130_fd_sc_hd__o21ai_1
*I *3181:Q O *D sky130_fd_sc_hd__dfrtp_1
*CAP
1 *3232:A 0.000432476
2 *2918:B1 0
3 *3181:Q 0
4 *308:12 0.000916896
5 *308:6 0.00134937
6 *3232:A *335:12 0
7 *3232:A *348:102 2.22079e-05
8 *308:12 *335:12 0
9 *308:12 *348:102 8.62073e-06
10 *308:12 *427:22 7.81176e-05
11 *98:8 *308:12 8.62783e-05
12 *182:12 *308:12 3.71369e-05
13 *198:33 *308:12 0
14 *198:39 *308:12 0
15 *198:55 *308:12 0
16 *206:106 *3232:A 0.000272383
17 *263:8 *3232:A 0
18 *263:8 *308:12 0
19 *280:71 *308:12 0.00010018
*RES
1 *3181:Q *308:6 38 
2 *308:6 *308:12 33.1457 
3 *308:12 *2918:B1 23 
4 *308:6 *3232:A 46.7829 
*END

*D_NET *309 0.00361563
*CONN
*I *2915:B1 I *D sky130_fd_sc_hd__o21ai_1
*I *3214:A I *D sky130_fd_sc_hd__dlygate4sd3_1
*I *3182:Q O *D sky130_fd_sc_hd__dfrtp_1
*CAP
1 *2915:B1 0.000426797
2 *3214:A 0.000252703
3 *3182:Q 0
4 *309:21 0.000959884
5 *309:4 0.00078579
6 *309:21 *317:29 4.95442e-05
7 *309:21 *336:10 0.000262496
8 *309:21 *364:8 1.22803e-05
9 *152:10 *2915:B1 5.37348e-06
10 *198:33 *309:21 0
11 *206:150 *309:21 0.000140958
12 *272:8 *309:21 8.62876e-05
13 *278:16 *309:21 0.000407218
14 *278:20 *309:21 0
15 *278:28 *3214:A 0.0002263
16 *278:28 *309:21 0
*RES
1 *3182:Q *309:4 23 
2 *309:4 *3214:A 27.9507 
3 *309:4 *309:21 43.1743 
4 *309:21 *2915:B1 30.2914 
*END

*D_NET *310 0.00136784
*CONN
*I *2944:B1 I *D sky130_fd_sc_hd__o21ai_1
*I *3242:A I *D sky130_fd_sc_hd__dlygate4sd3_1
*I *3183:Q O *D sky130_fd_sc_hd__dfrtp_1
*CAP
1 *2944:B1 0
2 *3242:A 0.00022084
3 *3183:Q 0
4 *310:21 0.000326954
5 *310:4 0.000547794
6 *3242:A *347:72 7.92994e-05
7 *310:21 *323:6 5.3304e-05
8 *310:21 *323:12 0.000139647
*RES
1 *3183:Q *310:4 23 
2 *310:4 *3242:A 27.3293 
3 *310:4 *310:21 36.2143 
4 *310:21 *2944:B1 23 
*END

*D_NET *311 0.00207125
*CONN
*I *3239:A I *D sky130_fd_sc_hd__dlygate4sd3_1
*I *2933:B1 I *D sky130_fd_sc_hd__o21ai_1
*I *3184:Q O *D sky130_fd_sc_hd__dfrtp_1
*CAP
1 *3239:A 0.000225208
2 *2933:B1 0.000190812
3 *3184:Q 0.000122962
4 *311:8 0.000538982
5 *2933:B1 *2933:A2 1.59909e-05
6 *2933:B1 *424:90 5.50049e-05
7 *2933:B1 *428:27 0
8 *3239:A *3101:A0 5.3304e-05
9 *3239:A *322:28 0.000308946
10 *2934:B1 *2933:B1 1.35999e-05
11 *2937:A *311:8 5.56279e-05
12 *149:12 *2933:B1 9.41656e-05
13 *149:12 *3239:A 3.71198e-05
14 *166:8 *2933:B1 1.01436e-05
15 *166:8 *3239:A 0.000136486
16 *168:12 *2933:B1 0.000212901
*RES
1 *3184:Q *311:8 39.5743 
2 *311:8 *2933:B1 43.0543 
3 *311:8 *3239:A 43.3857 
*END

*D_NET *312 0.0023855
*CONN
*I *3219:A I *D sky130_fd_sc_hd__dlygate4sd3_1
*I *2940:B1 I *D sky130_fd_sc_hd__o21ai_1
*I *3185:Q O *D sky130_fd_sc_hd__dfrtp_1
*CAP
1 *3219:A 0.000104308
2 *2940:B1 0
3 *3185:Q 0.000265466
4 *312:18 0.000546333
5 *312:10 0.000650641
6 *312:8 0.000265466
7 *312:8 *346:41 0
8 *312:8 *372:8 4.08641e-05
9 *312:18 *346:41 0
10 *312:18 *346:67 0
11 *312:18 *369:10 5.50106e-05
12 *312:18 *409:24 3.50862e-06
13 *312:18 *417:24 2.58781e-05
14 *312:18 *425:20 2.71575e-05
15 *207:39 *3219:A 0.000213869
16 *207:39 *312:18 9.84794e-05
17 *259:8 *312:8 8.85189e-05
18 *279:126 *312:18 0
19 *304:10 *312:8 0
20 *304:10 *312:18 0
21 *304:29 *312:18 0
*RES
1 *3185:Q *312:8 43.075 
2 *312:8 *312:10 15 
3 *312:10 *312:18 39.3421 
4 *312:18 *2940:B1 23 
5 *312:10 *3219:A 25.5271 
*END

*D_NET *313 0.00365643
*CONN
*I *3218:A I *D sky130_fd_sc_hd__dlygate4sd3_1
*I *2942:B1 I *D sky130_fd_sc_hd__o21ai_1
*I *3186:Q O *D sky130_fd_sc_hd__dfrtp_1
*CAP
1 *3218:A 0.00020721
2 *2942:B1 0
3 *3186:Q 6.06379e-05
4 *313:16 0.000491795
5 *313:8 0.000759643
6 *3218:A *3105:A0 0.000226306
7 *313:8 *3105:A1 0.000140949
8 *313:16 *2922:A2 7.1349e-05
9 *313:16 *2942:A1 2.64616e-05
10 *313:16 *2942:A2 0.000441065
11 *313:16 *3041:A0 7.53384e-06
12 *313:16 *3105:A1 1.14452e-05
13 *313:16 *3146:RESET_B 5.30415e-05
14 *313:16 *3178:RESET_B 0.000200585
15 *313:16 *347:97 0.000110024
16 *313:16 *418:10 8.62876e-05
17 *95:8 *3218:A 0.000185133
18 *175:18 *313:16 0.000108681
19 *178:8 *313:16 3.4875e-05
20 *268:10 *3218:A 0
21 *305:14 *313:8 4.06408e-05
22 *305:14 *313:16 0.000392768
*RES
1 *3186:Q *313:8 39.9057 
2 *313:8 *313:16 31.4679 
3 *313:16 *2942:B1 23 
4 *313:8 *3218:A 43.8829 
*END

*D_NET *314 0.00234157
*CONN
*I *3210:A I *D sky130_fd_sc_hd__dlygate4sd3_1
*I *2929:B1 I *D sky130_fd_sc_hd__o21ai_1
*I *3187:Q O *D sky130_fd_sc_hd__dfrtp_1
*CAP
1 *3210:A 0.000219031
2 *2929:B1 0
3 *3187:Q 0.000103689
4 *314:12 0.000724903
5 *314:8 0.00104762
6 *3210:A *389:53 5.41385e-05
7 *314:12 *427:146 3.98859e-05
8 *202:44 *3210:A 0
9 *202:44 *314:12 0
10 *202:61 *3210:A 0
11 *206:59 *3210:A 0
12 *206:59 *314:12 0
13 *206:86 *3210:A 9.84851e-05
14 *261:8 *314:8 5.38135e-05
*RES
1 *3187:Q *314:8 40.0507 
2 *314:8 *314:12 28.5264 
3 *314:12 *2929:B1 23 
4 *314:8 *3210:A 42.4121 
*END

*D_NET *315 0.00234043
*CONN
*I *2931:B1 I *D sky130_fd_sc_hd__o21ai_1
*I *3213:A I *D sky130_fd_sc_hd__dlygate4sd3_1
*I *3188:Q O *D sky130_fd_sc_hd__dfrtp_1
*CAP
1 *2931:B1 0.000640962
2 *3213:A 6.82897e-05
3 *3188:Q 0.000151825
4 *315:8 0.000861077
5 *2931:B1 *2931:A1 1.19796e-05
6 *2931:B1 *390:43 8.68903e-05
7 *3213:A *3109:A0 5.41385e-05
8 *3109:S *3213:A 0.000228909
9 *105:10 *315:8 0
10 *206:8 *3213:A 0.000130423
11 *206:29 *2931:B1 0
12 *238:8 *2931:B1 0
13 *270:10 *3213:A 0.000105934
*RES
1 *3188:Q *315:8 40.2579 
2 *315:8 *3213:A 41.9564 
3 *315:8 *2931:B1 49.4136 
*END

*D_NET *316 0.00360574
*CONN
*I *3227:A I *D sky130_fd_sc_hd__dlygate4sd3_1
*I *2938:B1 I *D sky130_fd_sc_hd__o21ai_1
*I *3189:Q O *D sky130_fd_sc_hd__dfrtp_1
*CAP
1 *3227:A 0.00019972
2 *2938:B1 0
3 *3189:Q 0.000196969
4 *316:14 0.000701865
5 *316:8 0.00109855
6 *3227:A *377:8 8.62876e-05
7 *316:14 *2938:A1 7.72518e-05
8 *316:14 *2938:A2 5.50049e-05
9 *316:14 *3165:RESET_B 0
10 *316:14 *319:45 0.000246739
11 *316:14 *342:69 1.21972e-05
12 *316:14 *342:71 0
13 *316:14 *344:45 0
14 *316:14 *377:8 0.000216721
15 *82:10 *316:14 0.000149138
16 *194:119 *316:14 0
17 *202:71 *316:8 0.00010018
18 *202:73 *316:8 9.16459e-05
19 *206:104 *3227:A 2.26489e-05
20 *206:104 *316:14 3.49587e-05
21 *206:106 *3227:A 0.000315857
22 *271:8 *3227:A 0
*RES
1 *3189:Q *316:8 41.0036 
2 *316:8 *316:14 30.9086 
3 *316:14 *2938:B1 23 
4 *316:8 *3227:A 43.3857 
*END

*D_NET *317 0.00540758
*CONN
*I *3228:A I *D sky130_fd_sc_hd__dlygate4sd3_1
*I *2935:B1 I *D sky130_fd_sc_hd__o21ai_1
*I *3190:Q O *D sky130_fd_sc_hd__dfrtp_1
*CAP
1 *3228:A 0
2 *2935:B1 0
3 *3190:Q 3.97175e-05
4 *317:29 0.000354211
5 *317:14 0.00110272
6 *317:6 0.00149665
7 *317:6 *345:106 1.76557e-05
8 *317:14 *327:10 0
9 *317:14 *345:106 0.000119969
10 *317:14 *422:10 0.000174417
11 *317:14 *430:46 7.75329e-06
12 *317:29 *3097:A0 0.000181131
13 *317:29 *3097:A1 0.000269781
14 *317:29 *3113:A0 0.000228001
15 *317:29 *320:31 0.00042954
16 *317:29 *336:10 0.000397744
17 *99:8 *317:14 0.000191166
18 *107:10 *317:14 0
19 *194:36 *317:14 2.35238e-05
20 *206:150 *317:29 5.45677e-05
21 *206:171 *317:29 0.000183206
22 *272:8 *317:29 8.62876e-05
23 *309:21 *317:29 4.95442e-05
*RES
1 *3190:Q *317:6 23.6214 
2 *317:6 *317:14 49.3886 
3 *317:14 *2935:B1 23 
4 *317:6 *317:29 43.6921 
5 *317:29 *3228:A 23 
*END

*D_NET *318 0.0238147
*CONN
*I *2985:A1 I *D sky130_fd_sc_hd__mux2_1
*I *2975:A1 I *D sky130_fd_sc_hd__mux2_1
*I *2970:A0 I *D sky130_fd_sc_hd__mux2_1
*I *2980:A1 I *D sky130_fd_sc_hd__mux2_1
*I *3245:X O *D sky130_fd_sc_hd__clkbuf_2
*CAP
1 *2985:A1 0
2 *2975:A1 0
3 *2970:A0 0
4 *2980:A1 0.000904293
5 *3245:X 0
6 *318:68 0.000517201
7 *318:55 0.00217347
8 *318:36 0.00139738
9 *318:28 0.00253305
10 *318:24 0.00210165
11 *318:18 0.00251429
12 *318:12 0.0025824
13 *318:6 0.00178607
14 *2980:A1 *2980:A0 6.99492e-05
15 *318:12 *338:30 0.00329843
16 *318:12 *362:8 0
17 *318:24 *2985:A0 2.64616e-05
18 *318:24 *3027:A0 0.000191957
19 *318:24 *325:41 0.000524377
20 *318:24 *349:8 1.97329e-05
21 *318:24 *427:96 0.000101681
22 *318:28 *343:113 0.000353352
23 *318:28 *427:96 1.0092e-05
24 *318:36 *2961:A1 6.07611e-06
25 *318:36 *2961:S 2.64616e-05
26 *318:55 *3139:RESET_B 2.03425e-05
27 *318:55 *343:37 0.000301555
28 *318:55 *343:57 7.49224e-05
29 *318:68 *2970:A1 0.000228903
30 *318:68 *338:49 0
31 *318:68 *344:29 0
32 *318:68 *361:8 1.58805e-05
33 *2910:B1 *318:24 2.32004e-05
34 *2927:B *2980:A1 3.27749e-06
35 *2970:S *318:55 1.24376e-05
36 *2970:S *318:68 4.95081e-05
37 *2971:A *318:55 6.40002e-05
38 *2980:S *2980:A1 8.06804e-06
39 *2985:S *318:24 0.000373927
40 *3028:A *318:24 5.70419e-05
41 *2:17 *318:12 0
42 *37:10 *318:36 0
43 *40:10 *318:55 5.50049e-05
44 *64:10 *318:24 0.000143655
45 *154:8 *318:36 1.22906e-05
46 *166:8 *318:36 0.000559124
47 *173:10 *318:24 0
48 *173:10 *318:28 0
49 *195:115 *318:68 0
50 *207:133 *318:36 0
51 *207:137 *318:24 9.5877e-05
52 *273:50 *318:36 0.00012381
53 *276:61 *318:36 5.78192e-05
54 *276:61 *318:55 0.000148008
55 *284:29 *2980:A1 5.56279e-05
56 *284:29 *318:36 0.000192077
*RES
1 *3245:X *318:6 38 
2 *318:6 *318:12 49.155 
3 *318:12 *318:18 28.4954 
4 *318:18 *318:24 48.8575 
5 *318:24 *318:28 24.6529 
6 *318:28 *318:36 40.0671 
7 *318:36 *2980:A1 34.1029 
8 *318:28 *318:55 27.0529 
9 *318:55 *2970:A0 23 
10 *318:55 *318:68 40.1914 
11 *318:68 *2975:A1 23 
12 *318:24 *2985:A1 38 
*END

*D_NET *319 0.0162912
*CONN
*I *3095:A1 I *D sky130_fd_sc_hd__mux2_1
*I *3063:A0 I *D sky130_fd_sc_hd__mux2_1
*I *3111:A1 I *D sky130_fd_sc_hd__mux2_1
*I *3079:A1 I *D sky130_fd_sc_hd__mux2_1
*I *3246:X O *D sky130_fd_sc_hd__clkbuf_2
*CAP
1 *3095:A1 0
2 *3063:A0 8.09305e-06
3 *3111:A1 0
4 *3079:A1 0
5 *3246:X 0
6 *319:45 0.000428274
7 *319:33 0.00109466
8 *319:22 0.000896147
9 *319:16 0.000424864
10 *319:12 0.00318408
11 *319:10 0.00412842
12 *319:6 0.00113135
13 *319:10 *331:10 0.000600797
14 *319:16 *381:8 0.000166522
15 *319:22 *3079:A0 7.53384e-06
16 *319:45 *3111:A0 0.000112087
17 *319:45 *3165:RESET_B 0
18 *3063:S *3063:A0 2.02517e-05
19 *3063:S *319:33 5.90675e-06
20 *3064:A *3063:A0 0
21 *3064:A *319:45 0.000104183
22 *3075:S *319:45 1.56665e-05
23 *3096:A *319:33 0.00012377
24 *3235:A *319:33 0.000123944
25 *23:11 *319:10 1.70419e-05
26 *90:8 *319:16 0
27 *90:8 *319:22 0
28 *194:125 *319:33 2.98648e-05
29 *194:125 *319:45 8.1796e-05
30 *194:144 *319:33 0.000128527
31 *198:55 *319:33 9.41704e-05
32 *198:55 *319:45 0.000137651
33 *198:70 *319:33 5.3304e-05
34 *198:84 *319:22 1.98161e-05
35 *198:84 *319:33 3.3958e-05
36 *206:96 *319:45 5.3304e-05
37 *206:106 *319:12 0.00249226
38 *263:8 *319:22 0
39 *280:119 *319:22 0.000271129
40 *300:12 *319:22 5.50676e-05
41 *316:14 *319:45 0.000246739
*RES
1 *3246:X *319:6 38 
2 *319:6 *319:10 40.1471 
3 *319:10 *319:12 65.8921 
4 *319:12 *319:16 18.6664 
5 *319:16 *319:22 20.3443 
6 *319:22 *3079:A1 23 
7 *319:22 *319:33 13.05 
8 *319:33 *319:45 39.8186 
9 *319:45 *3111:A1 23 
10 *319:33 *3063:A0 23.4971 
11 *319:16 *3095:A1 38 
*END

*D_NET *320 0.0198032
*CONN
*I *3081:A1 I *D sky130_fd_sc_hd__mux2_1
*I *3113:A1 I *D sky130_fd_sc_hd__mux2_1
*I *3097:A1 I *D sky130_fd_sc_hd__mux2_1
*I *3065:A0 I *D sky130_fd_sc_hd__mux2_1
*I *3247:X O *D sky130_fd_sc_hd__clkbuf_2
*CAP
1 *3081:A1 0.000162371
2 *3113:A1 0
3 *3097:A1 0.000286054
4 *3065:A0 0.0002146
5 *3247:X 0
6 *320:31 0.000643867
7 *320:25 0.00173239
8 *320:14 0.00241661
9 *320:8 0.00576318
10 *320:6 0.00477338
11 *3065:A0 *3065:A1 0.00014384
12 *3097:A1 *3097:A0 6.82416e-05
13 *320:8 *3186:RESET_B 0.000305509
14 *320:8 *324:10 0
15 *320:8 *324:31 0
16 *320:8 *426:81 9.1405e-05
17 *320:8 *426:90 0.000103815
18 *320:8 *426:109 0.000128811
19 *320:14 *2881:A1 0.00022823
20 *320:14 *2881:A2 2.02872e-05
21 *320:14 *425:49 9.19392e-05
22 *320:25 *3017:A1 0.000118602
23 *320:25 *328:14 0.000431949
24 *320:25 *345:100 0.000131067
25 *320:25 *354:10 0
26 *320:25 *406:25 6.5117e-06
27 *320:31 *328:14 4.08641e-05
28 *320:31 *345:100 3.83778e-05
29 *2881:B1 *320:14 9.66585e-05
30 *3138:CLK *320:8 0
31 *3159:CLK *320:8 0
32 *3186:CLK *320:8 0
33 *3233:A *320:8 0
34 *33:8 *320:8 0
35 *63:10 *320:8 2.01531e-05
36 *71:10 *320:8 0.000484291
37 *103:8 *320:8 4.08537e-05
38 *120:8 *320:14 9.97435e-06
39 *186:8 *320:8 0
40 *187:10 *320:8 0
41 *194:82 *3065:A0 2.50118e-05
42 *198:120 *320:25 8.62876e-05
43 *199:76 *320:8 0.000171796
44 *241:10 *320:8 0
45 *260:10 *320:8 0
46 *278:50 *3081:A1 0.000226931
47 *279:16 *320:8 0
48 *279:22 *320:8 0
49 *279:52 *320:8 0
50 *281:10 *320:8 0
51 *281:23 *320:8 0
52 *281:32 *320:8 0
53 *281:113 *320:8 0
54 *281:115 *320:8 0
55 *305:14 *320:8 0
56 *317:29 *3097:A1 0.000269781
57 *317:29 *320:31 0.00042954
*RES
1 *3247:X *320:6 38 
2 *320:6 *320:8 92.4064 
3 *320:8 *320:14 32.7936 
4 *320:14 *3065:A0 26.9564 
5 *320:14 *320:25 38.0343 
6 *320:25 *320:31 21.1107 
7 *320:31 *3097:A1 27.4329 
8 *320:31 *3113:A1 23 
9 *320:25 *3081:A1 40.5271 
*END

*D_NET *321 0.0155615
*CONN
*I *3035:A1 I *D sky130_fd_sc_hd__mux2_1
*I *3019:A1 I *D sky130_fd_sc_hd__mux2_1
*I *2987:A0 I *D sky130_fd_sc_hd__mux2_1
*I *3003:A1 I *D sky130_fd_sc_hd__mux2_1
*I *3248:X O *D sky130_fd_sc_hd__clkbuf_2
*CAP
1 *3035:A1 0
2 *3019:A1 0.000145942
3 *2987:A0 0.000686926
4 *3003:A1 0.000332531
5 *3248:X 0.00150824
6 *321:14 0.00120441
7 *321:12 0.00105976
8 *321:10 0.00307329
9 *321:8 0.00234443
10 *321:6 0.00150824
11 *2987:A0 *2987:A1 5.67058e-05
12 *3003:A1 *351:25 1.12487e-05
13 *3003:A1 *351:38 5.96687e-05
14 *3003:A1 *399:16 9.84794e-05
15 *3003:A1 *399:29 0.000165593
16 *3003:A1 *423:39 0
17 *321:10 *3115:RESET_B 0
18 *321:10 *347:80 0.000237525
19 *321:10 *347:91 0.00019747
20 *321:10 *389:10 0
21 *321:10 *415:10 0
22 *321:10 *423:8 0
23 *321:10 *423:14 0
24 *321:12 *347:80 0.000162422
25 *321:12 *423:29 0
26 *321:14 *423:31 0
27 *321:14 *423:39 0
28 *2905:B1 *3003:A1 5.50106e-05
29 *9:9 *321:6 3.3624e-05
30 *60:10 *321:12 0.000100778
31 *60:10 *321:14 1.01436e-05
32 *142:8 *3003:A1 8.62876e-05
33 *161:10 *3019:A1 0.000180218
34 *207:62 *3003:A1 0
35 *207:66 *3003:A1 0.000355699
36 *207:66 *321:12 0.00101142
37 *207:66 *321:14 0.000303269
38 *207:77 *321:10 1.14452e-05
39 *207:77 *321:12 0.000422629
40 *207:94 *321:10 5.01986e-05
41 *257:8 *321:12 8.78864e-05
42 *281:151 *321:12 0
*RES
1 *3248:X *321:6 42.6786 
2 *321:6 *321:8 15 
3 *321:8 *321:10 46.98 
4 *321:10 *321:12 19.1607 
5 *321:12 *321:14 4.01857 
6 *321:14 *3003:A1 46.99 
7 *321:14 *2987:A0 49.5793 
8 *321:12 *3019:A1 40.0507 
9 *321:10 *3035:A1 38 
*END

*D_NET *322 0.013204
*CONN
*I *3021:A1 I *D sky130_fd_sc_hd__mux2_1
*I *3037:A1 I *D sky130_fd_sc_hd__mux2_1
*I *2989:A0 I *D sky130_fd_sc_hd__mux2_1
*I *3005:A1 I *D sky130_fd_sc_hd__mux2_1
*I *3249:X O *D sky130_fd_sc_hd__buf_1
*CAP
1 *3021:A1 0.000195386
2 *3037:A1 0
3 *2989:A0 0.000117734
4 *3005:A1 0
5 *3249:X 0
6 *322:34 0.000357766
7 *322:28 0.00128801
8 *322:16 0.00120537
9 *322:10 0.000954005
10 *322:8 0.00245365
11 *322:4 0.00208789
12 *2989:A0 *392:12 4.96717e-05
13 *2989:A0 *392:27 3.22465e-05
14 *3021:A1 *408:10 0.00014411
15 *322:16 *3144:RESET_B 0.000309285
16 *322:16 *408:10 7.88828e-05
17 *322:16 *416:36 2.18506e-05
18 *322:28 *3069:A1 1.14154e-05
19 *322:28 *3101:A0 0.000157322
20 *322:28 *362:24 5.50049e-05
21 *322:28 *362:33 0.00115972
22 *322:28 *362:48 4.19743e-05
23 *322:28 *416:36 9.84794e-05
24 *322:34 *352:10 0
25 *322:34 *392:8 0
26 *322:34 *400:37 3.72639e-05
27 *322:34 *424:49 0
28 *2989:S *2989:A0 9.91101e-05
29 *3022:A *3021:A1 4.00259e-06
30 *3037:S *322:28 0.000228903
31 *3069:S *2989:A0 0.000144501
32 *3069:S *322:28 0.000315852
33 *3070:A *322:28 0.00010018
34 *3239:A *322:28 0.000308946
35 *85:10 *322:28 5.47927e-05
36 *131:10 *322:34 0.000163243
37 *198:152 *2989:A0 4.03352e-05
38 *199:29 *322:34 8.58465e-05
39 *203:12 *3021:A1 0
40 *203:12 *322:10 0
41 *266:10 *322:28 1.76557e-05
42 *274:64 *322:10 0.00065331
43 *274:77 *322:10 0.000130277
*RES
1 *3249:X *322:4 23 
2 *322:4 *322:8 42.3014 
3 *322:8 *322:10 10.005 
4 *322:10 *322:16 23.7414 
5 *322:16 *322:28 24.795 
6 *322:28 *322:34 36.4836 
7 *322:34 *3005:A1 23 
8 *322:28 *2989:A0 26.48 
9 *322:16 *3037:A1 23 
10 *322:10 *3021:A1 41.8529 
*END

*D_NET *323 0.0139531
*CONN
*I *3023:A1 I *D sky130_fd_sc_hd__mux2_1
*I *3039:A1 I *D sky130_fd_sc_hd__mux2_1
*I *2991:A0 I *D sky130_fd_sc_hd__mux2_1
*I *3007:A1 I *D sky130_fd_sc_hd__mux2_1
*I *3250:X O *D sky130_fd_sc_hd__dlymetal6s2s_1
*CAP
1 *3023:A1 2.02868e-05
2 *3039:A1 0
3 *2991:A0 0
4 *3007:A1 0
5 *3250:X 0.000890974
6 *323:40 0.000345827
7 *323:32 0.00101293
8 *323:26 0.000961278
9 *323:22 0.00170006
10 *323:12 0.00273194
11 *323:6 0.00223731
12 *323:12 *3143:RESET_B 8.47124e-05
13 *323:12 *333:55 0
14 *323:12 *347:52 0.000167443
15 *323:12 *347:72 0.000817196
16 *323:12 *407:14 8.85189e-05
17 *323:22 *3023:A0 8.06804e-06
18 *323:22 *3135:RESET_B 0.000164291
19 *323:22 *346:111 0.00102942
20 *323:26 *3023:A0 1.24298e-05
21 *323:32 *2941:A1 1.61385e-05
22 *323:32 *2991:A1 5.58003e-05
23 *323:32 *3039:A0 1.59094e-05
24 *323:32 *409:24 2.50118e-05
25 *323:32 *417:24 9.91548e-05
26 *323:32 *425:124 4.31152e-05
27 *323:32 *425:139 1.47709e-05
28 *3040:A *323:32 0.000188526
29 *158:8 *323:32 2.95526e-05
30 *195:48 *323:40 0.000315538
31 *195:54 *323:40 0.000103123
32 *203:87 *323:40 0.000200367
33 *203:146 *323:12 0
34 *227:10 *323:26 3.44029e-05
35 *294:25 *323:22 0.000244598
36 *302:12 *323:12 0.000101472
37 *310:21 *323:6 5.3304e-05
38 *310:21 *323:12 0.000139647
*RES
1 *3250:X *323:6 39.3436 
2 *323:6 *323:12 43.1818 
3 *323:12 *323:22 45.3154 
4 *323:22 *323:26 4.93 
5 *323:26 *323:32 14.1271 
6 *323:32 *323:40 39.6529 
7 *323:40 *3007:A1 23 
8 *323:32 *2991:A0 23 
9 *323:26 *3039:A1 23 
10 *323:22 *3023:A1 23.4971 
*END

*D_NET *324 0.0271717
*CONN
*I *3041:A1 I *D sky130_fd_sc_hd__mux2_1
*I *3025:A1 I *D sky130_fd_sc_hd__mux2_1
*I *2993:A0 I *D sky130_fd_sc_hd__mux2_1
*I *3009:A1 I *D sky130_fd_sc_hd__mux2_1
*I *3251:X O *D sky130_fd_sc_hd__clkbuf_2
*CAP
1 *3041:A1 0.000314819
2 *3025:A1 0
3 *2993:A0 0.000295794
4 *3009:A1 0.000125054
5 *3251:X 0
6 *324:44 0.00129456
7 *324:31 0.00257051
8 *324:18 0.000473409
9 *324:10 0.005596
10 *324:8 0.00395267
11 *324:6 0.00150877
12 *324:4 0.00150877
13 *2993:A0 *348:18 0.000187389
14 *3009:A1 *2957:A1 5.3304e-05
15 *3009:A1 *402:31 0.000319689
16 *3041:A1 *2922:A2 2.472e-05
17 *3041:A1 *3146:RESET_B 8.62876e-05
18 *3041:A1 *410:12 5.68423e-05
19 *3041:A1 *418:38 0
20 *324:6 *351:6 0.00122048
21 *324:6 *390:6 0.00323767
22 *324:10 *373:28 0.000718655
23 *324:10 *379:8 0
24 *324:10 *393:12 4.0544e-05
25 *324:10 *425:57 1.11079e-05
26 *324:18 *2957:A1 0.000241346
27 *324:18 *3116:RESET_B 0.000270731
28 *324:18 *425:73 0.000110913
29 *324:31 *2957:A0 8.05011e-05
30 *324:31 *426:23 0.000107641
31 *324:44 *348:18 0.000562585
32 *2906:D *3009:A1 0.000118673
33 *3138:CLK *324:10 0
34 *10:9 *324:6 4.93812e-05
35 *54:8 *324:10 0.000138747
36 *55:8 *324:31 0.000218023
37 *119:10 *324:10 0.000748117
38 *139:16 *3009:A1 6.51214e-05
39 *139:16 *324:10 0
40 *139:16 *324:18 0.000336732
41 *139:16 *324:31 0
42 *160:10 *324:44 0.000201828
43 *175:18 *3041:A1 5.45887e-05
44 *177:12 *3041:A1 0
45 *202:120 *324:10 0
46 *220:8 *3009:A1 0.000269701
47 *279:22 *324:10 0
48 *296:10 *324:10 0
49 *296:27 *324:10 0
50 *297:8 *324:31 0
51 *320:8 *324:10 0
52 *320:8 *324:31 0
*RES
1 *3251:X *324:4 23 
2 *324:4 *324:6 50.17 
3 *324:6 *324:8 15 
4 *324:8 *324:10 76.9121 
5 *324:10 *324:18 37.7264 
6 *324:18 *3009:A1 43.3857 
7 *324:10 *324:31 38.7386 
8 *324:31 *2993:A0 26.9564 
9 *324:31 *324:44 31.8821 
10 *324:44 *3025:A1 38 
11 *324:44 *3041:A1 43.7793 
*END

*D_NET *325 0.0288329
*CONN
*I *3043:A1 I *D sky130_fd_sc_hd__mux2_1
*I *2995:A0 I *D sky130_fd_sc_hd__mux2_1
*I *3011:A1 I *D sky130_fd_sc_hd__mux2_1
*I *3027:A1 I *D sky130_fd_sc_hd__mux2_1
*I *3252:X O *D sky130_fd_sc_hd__clkbuf_2
*CAP
1 *3043:A1 0.000572995
2 *2995:A0 0.000299359
3 *3011:A1 0
4 *3027:A1 0
5 *3252:X 0
6 *325:49 0.000632556
7 *325:41 0.00160888
8 *325:31 0.0017111
9 *325:20 0.000461132
10 *325:18 0.00125159
11 *325:10 0.00399811
12 *325:8 0.00392414
13 *325:4 0.00117763
14 *2995:A0 *338:24 4.21471e-05
15 *2995:A0 *338:43 0.000276915
16 *3043:A1 *3043:A0 3.91386e-05
17 *3043:A1 *338:24 7.73541e-05
18 *3043:A1 *419:6 1.94812e-05
19 *3043:A1 *419:17 2.13012e-05
20 *325:8 *326:6 0.00232717
21 *325:8 *327:6 9.84794e-05
22 *325:10 *326:12 0
23 *325:10 *326:14 0
24 *325:10 *339:38 0.000265185
25 *325:10 *340:16 0.000932855
26 *325:10 *412:19 5.56203e-05
27 *325:18 *3144:RESET_B 7.75329e-06
28 *325:18 *339:38 8.27032e-06
29 *325:18 *339:81 0.000116487
30 *325:18 *339:91 9.73673e-05
31 *325:18 *340:8 0.00199415
32 *325:18 *340:16 0.000697028
33 *325:18 *350:8 0.000376261
34 *325:31 *3027:A0 0.000533393
35 *325:41 *2910:A1 1.35714e-05
36 *325:41 *2985:A0 0.000182826
37 *325:41 *3027:A0 6.82514e-05
38 *325:41 *427:96 0.000147602
39 *325:49 *2963:A1 0.000358425
40 *325:49 *3011:A0 5.67058e-05
41 *325:49 *343:57 2.02517e-05
42 *2910:B1 *325:41 0.000140259
43 *2911:B1 *325:10 0
44 *2948:A *2995:A0 5.50106e-05
45 *2985:S *325:41 4.00259e-06
46 *43:10 *3043:A1 7.71315e-05
47 *97:8 *325:10 4.31366e-05
48 *101:8 *325:18 0
49 *146:8 *3043:A1 0.000115615
50 *146:8 *325:31 1.14452e-05
51 *147:10 *325:31 1.0092e-05
52 *165:8 *3043:A1 0
53 *182:14 *2995:A0 0.00065935
54 *202:44 *2995:A0 8.75688e-05
55 *202:44 *325:49 0.000290846
56 *203:25 *325:18 0.00103686
57 *203:40 *325:18 0.000427952
58 *206:59 *2995:A0 0
59 *206:59 *325:49 0
60 *207:133 *3043:A1 1.86973e-05
61 *207:133 *325:31 1.987e-05
62 *207:149 *3043:A1 4.89939e-05
63 *221:10 *325:49 5.50106e-05
64 *234:8 *325:18 8.85189e-05
65 *266:10 *325:18 0
66 *274:29 *325:10 0.000218943
67 *276:70 *325:31 0
68 *277:10 *325:49 0.000404038
69 *306:10 *3043:A1 2.36844e-05
70 *307:10 *325:10 0
71 *318:24 *325:41 0.000524377
*RES
1 *3252:X *325:4 23 
2 *325:4 *325:8 47.5421 
3 *325:8 *325:10 62.1325 
4 *325:10 *325:18 45.8925 
5 *325:18 *325:20 15 
6 *325:20 *3027:A1 23 
7 *325:20 *325:31 22.0636 
8 *325:31 *325:41 44.4793 
9 *325:41 *325:49 32.2757 
10 *325:49 *3011:A1 23 
11 *325:41 *2995:A0 48.9579 
12 *325:31 *3043:A1 47.5079 
*END

*D_NET *326 0.0161529
*CONN
*I *3029:A1 I *D sky130_fd_sc_hd__mux2_1
*I *2997:A0 I *D sky130_fd_sc_hd__mux2_1
*I *3013:A1 I *D sky130_fd_sc_hd__mux2_1
*I *3045:A1 I *D sky130_fd_sc_hd__mux2_1
*I *3253:X O *D sky130_fd_sc_hd__clkbuf_2
*CAP
1 *3029:A1 0.000228876
2 *2997:A0 0
3 *3013:A1 0
4 *3045:A1 0
5 *3253:X 0.00102154
6 *326:60 0.000184081
7 *326:43 0.000363641
8 *326:41 0.0011639
9 *326:22 0.00165801
10 *326:14 0.00270154
11 *326:12 0.00247519
12 *326:6 0.00169774
13 *3029:A1 *340:16 0.000225701
14 *326:14 *340:16 0.000489279
15 *326:22 *2931:A2 4.34745e-05
16 *326:22 *3156:RESET_B 0.00013273
17 *326:22 *420:8 0.000159331
18 *326:22 *420:21 8.6949e-05
19 *326:41 *2931:A2 0.000271476
20 *326:43 *404:35 5.67058e-05
21 *326:60 *339:20 2.68708e-05
22 *326:60 *344:22 8.1796e-05
23 *326:60 *404:35 5.50049e-05
24 *326:60 *428:42 0.00014196
25 *3014:A *326:41 0.000187129
26 *3132:D *326:41 2.93747e-05
27 *19:11 *326:12 1.01436e-05
28 *49:8 *326:41 8.85189e-05
29 *57:10 *326:41 0.0001822
30 *73:10 *3029:A1 1.02387e-05
31 *73:10 *326:14 2.5415e-05
32 *203:60 *326:43 1.68097e-05
33 *214:8 *326:60 1.01436e-05
34 *274:10 *3029:A1 0
35 *274:12 *3029:A1 0
36 *274:16 *3029:A1 0
37 *274:16 *326:14 0
38 *325:8 *326:6 0.00232717
39 *325:10 *326:12 0
40 *325:10 *326:14 0
*RES
1 *3253:X *326:6 48.3957 
2 *326:6 *326:12 28.0811 
3 *326:12 *326:14 38.1868 
4 *326:14 *326:22 25.3157 
5 *326:22 *3045:A1 23 
6 *326:22 *326:41 49.0986 
7 *326:41 *326:43 2.52714 
8 *326:43 *3013:A1 23 
9 *326:43 *326:60 34.2464 
10 *326:60 *2997:A0 23 
11 *326:14 *3029:A1 43.7793 
*END

*D_NET *327 0.024275
*CONN
*I *3031:A1 I *D sky130_fd_sc_hd__mux2_1
*I *3047:A1 I *D sky130_fd_sc_hd__mux2_1
*I *2999:A0 I *D sky130_fd_sc_hd__mux2_1
*I *3015:A1 I *D sky130_fd_sc_hd__mux2_1
*I *3254:X O *D sky130_fd_sc_hd__clkbuf_2
*CAP
1 *3031:A1 9.75116e-05
2 *3047:A1 0
3 *2999:A0 0.000123846
4 *3015:A1 2.01797e-05
5 *3254:X 0
6 *327:46 0.000499948
7 *327:31 0.000867819
8 *327:27 0.00106815
9 *327:10 0.00546536
10 *327:8 0.00471857
11 *327:6 0.00241288
12 *327:4 0.00241288
13 *2999:A0 *3133:RESET_B 0
14 *2999:A0 *429:67 0
15 *3015:A1 *3015:A0 9.84794e-05
16 *3031:A1 *3031:A0 5.50049e-05
17 *327:6 *390:12 0.00183746
18 *327:10 *2965:A0 9.85728e-05
19 *327:10 *2965:A1 7.61279e-05
20 *327:10 *3001:A1 0
21 *327:10 *3049:A1 0
22 *327:10 *3182:RESET_B 0.000126343
23 *327:10 *332:33 0
24 *327:10 *335:29 0.000234458
25 *327:10 *336:10 0
26 *327:10 *345:106 6.70363e-05
27 *327:10 *398:23 0
28 *327:10 *414:20 0
29 *327:10 *430:14 1.52362e-05
30 *327:10 *430:46 0
31 *327:10 *430:81 0
32 *327:27 *335:10 2.46922e-05
33 *327:27 *335:12 0.000777197
34 *327:27 *335:29 0.000429183
35 *327:46 *3047:A0 0.000575797
36 *327:46 *3133:RESET_B 0
37 *327:46 *342:71 0
38 *327:46 *427:32 0.000832341
39 *327:46 *429:67 0
40 *2907:A *327:10 0
41 *3241:A *327:10 0
42 *21:9 *327:6 0.000142585
43 *39:8 *327:10 0.000116314
44 *83:10 *327:10 4.48568e-05
45 *99:8 *327:10 5.93485e-05
46 *126:12 *327:27 0.000133879
47 *135:12 *327:10 0
48 *152:10 *327:10 0
49 *163:24 *3015:A1 9.84794e-05
50 *175:10 *327:46 2.93747e-05
51 *192:8 *327:10 8.85189e-05
52 *231:10 *327:31 0.000220047
53 *278:36 *327:10 0
54 *278:132 *327:10 0.000186697
55 *292:12 *2999:A0 0
56 *292:12 *327:27 0.00012139
57 *317:14 *327:10 0
58 *325:8 *327:6 9.84794e-05
*RES
1 *3254:X *327:4 23 
2 *327:4 *327:6 53.9814 
3 *327:6 *327:8 15 
4 *327:8 *327:10 87.8286 
5 *327:10 *3015:A1 39.0979 
6 *327:10 *327:27 35.2793 
7 *327:27 *327:31 20.3857 
8 *327:31 *2999:A0 40.2579 
9 *327:31 *327:46 29.2721 
10 *327:46 *3047:A1 23 
11 *327:27 *3031:A1 24.5743 
*END

*D_NET *328 0.0204858
*CONN
*I *3017:A1 I *D sky130_fd_sc_hd__mux2_1
*I *3033:A1 I *D sky130_fd_sc_hd__mux2_1
*I *3001:A0 I *D sky130_fd_sc_hd__mux2_1
*I *3049:A1 I *D sky130_fd_sc_hd__mux2_1
*I *3255:X O *D sky130_fd_sc_hd__clkbuf_2
*CAP
1 *3017:A1 9.3698e-05
2 *3033:A1 0
3 *3001:A0 0.000421551
4 *3049:A1 0.000468326
5 *3255:X 0
6 *328:24 0.000930968
7 *328:20 0.000774786
8 *328:14 0.00344062
9 *328:12 0.00385845
10 *328:8 0.00407378
11 *328:4 0.00282855
12 *3001:A0 *3001:A1 5.14826e-05
13 *3001:A0 *430:26 0.000191243
14 *3001:A0 *430:30 0.000107854
15 *3017:A1 *406:25 0.000235501
16 *3049:A1 *341:49 0
17 *3049:A1 *341:65 0
18 *3049:A1 *414:20 0.000194318
19 *3049:A1 *422:10 6.6663e-06
20 *3049:A1 *422:36 0.000218943
21 *3049:A1 *430:30 8.41115e-05
22 *3049:A1 *430:46 0.000187986
23 *328:14 *2895:A2 8.62783e-05
24 *328:14 *345:38 0
25 *328:14 *345:100 0
26 *328:14 *406:25 0.000250839
27 *328:24 *414:14 5.3304e-05
28 *3018:A *328:20 0.000391473
29 *91:10 *328:14 4.58924e-05
30 *152:10 *3001:A0 8.68145e-05
31 *152:10 *3049:A1 1.12487e-05
32 *194:36 *328:14 0.000101339
33 *195:33 *3001:A0 9.91548e-05
34 *195:48 *3001:A0 5.5792e-05
35 *198:33 *328:14 0
36 *203:60 *328:20 2.18109e-05
37 *203:60 *328:24 9.67842e-05
38 *203:71 *328:20 0.000312888
39 *278:8 *328:20 0.000111933
40 *278:20 *328:14 0
41 *278:28 *328:14 0
42 *320:25 *3017:A1 0.000118602
43 *320:25 *328:14 0.000431949
44 *320:31 *328:14 4.08641e-05
45 *327:10 *3049:A1 0
*RES
1 *3255:X *328:4 23 
2 *328:4 *328:8 48.0468 
3 *328:8 *328:12 31.1054 
4 *328:12 *328:14 54.0229 
5 *328:14 *328:20 29.3343 
6 *328:20 *328:24 16.0979 
7 *328:24 *3049:A1 46.2029 
8 *328:24 *3001:A0 48.1707 
9 *328:20 *3033:A1 23 
10 *328:14 *3017:A1 41.3143 
*END

*D_NET *329 0.0118128
*CONN
*I *2972:B I *D sky130_fd_sc_hd__and3b_1
*I *2967:B I *D sky130_fd_sc_hd__or3b_1
*I *2982:B I *D sky130_fd_sc_hd__and3_1
*I *2977:A_N I *D sky130_fd_sc_hd__and3b_1
*I *3256:X O *D sky130_fd_sc_hd__buf_1
*CAP
1 *2972:B 0.000355899
2 *2967:B 0
3 *2982:B 0.000103374
4 *2977:A_N 0
5 *3256:X 0
6 *329:30 0.000392489
7 *329:21 0.000266905
8 *329:10 0.00159954
9 *329:6 0.00510424
10 *329:4 0.00363165
11 *2972:B *2972:A_N 0.000117759
12 *2972:B *330:18 6.51763e-05
13 *2972:B *340:30 5.41288e-05
14 *2982:B *340:30 5.93127e-05
15 *329:21 *340:40 2.54046e-05
16 *329:30 *340:30 2.93845e-05
17 *3188:D *2982:B 7.53384e-06
18 *202:8 *329:21 0
*RES
1 *3256:X *329:4 23 
2 *329:4 *329:6 47.7879 
3 *329:6 *329:10 44.0207 
4 *329:10 *2977:A_N 38 
5 *329:10 *329:21 17.2579 
6 *329:21 *2982:B 24.5743 
7 *329:21 *329:30 0.621429 
8 *329:30 *2967:B 23 
9 *329:30 *2972:B 28.3857 
*END

*D_NET *330 0.00660668
*CONN
*I *2972:C I *D sky130_fd_sc_hd__and3b_1
*I *2977:B I *D sky130_fd_sc_hd__and3b_1
*I *2982:C I *D sky130_fd_sc_hd__and3_1
*I *2967:C_N I *D sky130_fd_sc_hd__or3b_1
*I *3257:X O *D sky130_fd_sc_hd__buf_1
*CAP
1 *2972:C 1.85078e-05
2 *2977:B 0
3 *2982:C 7.22501e-05
4 *2967:C_N 0
5 *3257:X 0
6 *330:40 0.000114095
7 *330:20 0.000136476
8 *330:18 0.000283233
9 *330:16 0.00066073
10 *330:8 0.00232859
11 *330:6 0.00179128
12 *2982:C *340:30 0.00011045
13 *330:18 *2972:A_N 0.000172996
14 *330:20 *2972:A_N 5.3304e-05
15 *330:20 *340:30 0.000141954
16 *330:40 *340:40 0.000138718
17 *2972:B *330:18 6.51763e-05
18 *193:10 *2972:C 1.14154e-05
19 *193:10 *330:16 7.78672e-05
20 *193:10 *330:18 0.000151601
21 *194:14 *330:16 0.000173522
22 *202:8 *330:40 0
23 *205:10 *2982:C 5.50106e-05
24 *205:10 *330:20 4.95081e-05
*RES
1 *3257:X *330:6 38 
2 *330:6 *330:8 35.0071 
3 *330:8 *330:16 23.6379 
4 *330:16 *330:18 3.95643 
5 *330:18 *330:20 2.05071 
6 *330:20 *2967:C_N 23 
7 *330:20 *2982:C 24.9057 
8 *330:18 *330:40 32.2579 
9 *330:40 *2977:B 23 
10 *330:16 *2972:C 23.4971 
*END

*D_NET *331 0.00666318
*CONN
*I *2951:A1 I *D sky130_fd_sc_hd__mux2_1
*I *3258:X O *D sky130_fd_sc_hd__buf_1
*CAP
1 *2951:A1 0.00194318
2 *3258:X 0
3 *331:10 0.00273568
4 *331:6 0.000792494
5 *2951:A1 *2951:A0 0.000528927
6 *23:11 *331:10 6.21013e-05
7 *319:10 *331:10 0.000600797
*RES
1 *3258:X *331:6 38 
2 *331:6 *331:10 33.1043 
3 *331:10 *2951:A1 49.3486 
*END

*D_NET *332 0.0357465
*CONN
*I *2961:S I *D sky130_fd_sc_hd__mux2_1
*I *2951:S I *D sky130_fd_sc_hd__mux2_1
*I *2959:S I *D sky130_fd_sc_hd__mux2_1
*I *2965:S I *D sky130_fd_sc_hd__mux2_1
*I *2953:S I *D sky130_fd_sc_hd__mux2_1
*I *2955:S I *D sky130_fd_sc_hd__mux2_1
*I *2957:S I *D sky130_fd_sc_hd__mux2_1
*I *2963:S I *D sky130_fd_sc_hd__mux2_1
*I *3259:X O *D sky130_fd_sc_hd__buf_4
*CAP
1 *2961:S 2.77218e-05
2 *2951:S 0
3 *2959:S 0
4 *2965:S 0
5 *2953:S 0
6 *2955:S 0
7 *2957:S 0
8 *2963:S 2.34823e-05
9 *3259:X 0
10 *332:118 0.00129287
11 *332:112 0.0025016
12 *332:97 0.00124543
13 *332:93 0.00150114
14 *332:70 0.00013101
15 *332:60 0.000846033
16 *332:49 0.000800796
17 *332:43 0.00157714
18 *332:33 0.00197043
19 *332:29 0.00312392
20 *332:20 0.00281186
21 *332:10 0.00232928
22 *332:6 0.00310237
23 *332:4 0.00240876
24 *332:10 *343:113 0.00109817
25 *332:10 *343:120 0.0007969
26 *332:20 *2963:A0 2.02872e-05
27 *332:20 *2963:A1 0.00134771
28 *332:20 *337:31 0.000190826
29 *332:20 *343:57 1.55097e-05
30 *332:20 *343:113 0.000161121
31 *332:20 *428:16 2.30292e-05
32 *332:20 *428:27 6.67868e-05
33 *332:29 *2963:A0 0.000364114
34 *332:29 *343:31 2.94414e-05
35 *332:33 *2898:A2 1.59312e-05
36 *332:33 *2965:A0 1.47563e-05
37 *332:33 *2965:A1 5.74223e-05
38 *332:33 *3141:RESET_B 0.000213075
39 *332:33 *336:29 9.38299e-05
40 *332:33 *429:31 5.33213e-05
41 *332:33 *429:55 0.000107732
42 *332:43 *2965:A0 8.41115e-05
43 *332:43 *3138:RESET_B 2.15102e-05
44 *332:43 *336:10 5.56306e-05
45 *332:43 *336:29 2.60152e-05
46 *332:43 *402:14 0.000232734
47 *332:43 *424:26 0.000207273
48 *332:43 *425:83 8.06804e-06
49 *332:60 *2953:A0 7.0429e-05
50 *332:60 *2957:A0 0.000100803
51 *332:60 *2957:A1 3.91386e-05
52 *332:60 *423:79 5.67058e-05
53 *332:70 *2953:A0 6.93553e-05
54 *332:70 *425:83 4.00259e-06
55 *332:93 *348:30 6.38342e-05
56 *332:93 *348:70 0.000136609
57 *332:97 *2959:A1 5.3304e-05
58 *332:112 *2959:A1 0.000217531
59 *332:112 *426:61 0.000108309
60 *332:112 *426:81 0.000440597
61 *332:118 *2951:A0 5.25848e-05
62 *2906:D *332:60 0.000150267
63 *2943:B1 *332:118 4.66036e-05
64 *3138:D *332:43 4.96303e-05
65 *55:8 *332:49 3.88504e-05
66 *58:10 *332:29 9.84794e-05
67 *118:16 *332:93 0
68 *120:18 *332:93 0
69 *125:10 *332:93 0
70 *139:16 *332:49 0.000135557
71 *143:12 *332:60 0.00024663
72 *143:12 *332:70 5.50106e-05
73 *156:18 *332:93 0.000472332
74 *166:8 *332:10 0.00121437
75 *166:8 *332:20 0.000296017
76 *177:12 *332:118 0
77 *181:8 *332:118 0
78 *185:10 *332:118 0.000141173
79 *195:65 *332:70 6.6869e-05
80 *199:133 *332:33 0
81 *203:100 *332:33 0
82 *207:149 *332:10 0
83 *207:172 *332:10 0
84 *212:10 *332:93 1.85903e-05
85 *220:8 *332:60 7.9199e-05
86 *273:10 *332:33 1.05658e-05
87 *276:61 *2961:S 5.3304e-05
88 *280:44 *332:93 0
89 *281:44 *332:118 8.33262e-05
90 *281:72 *332:118 5.08899e-05
91 *318:36 *2961:S 2.64616e-05
92 *327:10 *332:33 0
*RES
1 *3259:X *332:4 23 
2 *332:4 *332:6 42.5471 
3 *332:6 *332:10 40.1471 
4 *332:10 *332:20 45.0564 
5 *332:20 *2963:S 23.4971 
6 *332:20 *332:29 20.155 
7 *332:29 *332:33 26.0614 
8 *332:33 *332:43 37.5786 
9 *332:43 *332:49 31.9057 
10 *332:49 *2957:S 23 
11 *332:49 *332:60 16.1364 
12 *332:60 *332:70 33.3764 
13 *332:70 *2955:S 23 
14 *332:60 *2953:S 23 
15 *332:33 *2965:S 38 
16 *332:29 *332:93 41.2036 
17 *332:93 *332:97 15.6214 
18 *332:97 *2959:S 23 
19 *332:97 *332:112 40.1057 
20 *332:112 *332:118 39.8157 
21 *332:118 *2951:S 23 
22 *332:10 *2961:S 38.6214 
*END

*D_NET *333 0.0190788
*CONN
*I *3208:A I *D sky130_fd_sc_hd__clkbuf_4
*I *3206:A I *D sky130_fd_sc_hd__clkbuf_4
*I *3205:A I *D sky130_fd_sc_hd__clkbuf_4
*I *3204:A I *D sky130_fd_sc_hd__clkbuf_2
*I *3260:X O *D sky130_fd_sc_hd__clkbuf_2
*CAP
1 *3208:A 0
2 *3206:A 3.14994e-05
3 *3205:A 0
4 *3204:A 0
5 *3260:X 0.000974676
6 *333:55 0.00209977
7 *333:53 0.00229728
8 *333:42 0.000664266
9 *333:31 0.000359143
10 *333:18 0.000112583
11 *333:12 0.00177345
12 *333:8 0.00338426
13 *333:6 0.00277418
14 *3206:A *346:16 2.93335e-05
15 *333:12 *2895:A1 5.67058e-05
16 *333:12 *3049:A0 5.67058e-05
17 *333:12 *354:10 0.000188934
18 *333:12 *422:21 7.1349e-05
19 *333:18 *341:10 0
20 *333:18 *341:49 0
21 *333:18 *422:10 0
22 *333:42 *346:29 0.000249634
23 *333:53 *346:16 2.64616e-05
24 *206:181 *333:31 1.94693e-05
25 *207:37 *333:12 0.000427162
26 *207:39 *333:8 0.00152013
27 *207:39 *333:12 0.00196185
28 *267:10 *333:31 0
29 *279:88 *333:31 0
30 *288:21 *333:31 0
31 *323:12 *333:55 0
*RES
1 *3260:X *333:6 39.3436 
2 *333:6 *333:8 27.3014 
3 *333:8 *333:12 35.8979 
4 *333:12 *333:18 31.5536 
5 *333:18 *3204:A 23 
6 *333:8 *333:31 36.0486 
7 *333:31 *3205:A 23 
8 *333:6 *333:42 39.3007 
9 *333:42 *3206:A 23.6214 
10 *333:42 *333:53 18.48 
11 *333:53 *333:55 39.585 
12 *333:55 *3208:A 38 
*END

*D_NET *334 0.00092351
*CONN
*I *3268:A I *D sky130_fd_sc_hd__clkbuf_4
*I *2950:X O *D sky130_fd_sc_hd__clkbuf_1
*CAP
1 *3268:A 0.000191964
2 *2950:X 0.000269791
3 *334:8 0.000461755
*RES
1 *2950:X *334:8 43.075 
2 *334:8 *3268:A 41.48 
*END

*D_NET *335 0.0124239
*CONN
*I *2949:A I *D sky130_fd_sc_hd__or4_1
*I *3269:A I *D sky130_fd_sc_hd__clkbuf_4
*I *2888:X O *D sky130_fd_sc_hd__buf_1
*CAP
1 *2949:A 0.000244088
2 *3269:A 0
3 *2888:X 9.98415e-05
4 *335:29 0.000768459
5 *335:12 0.00288327
6 *335:10 0.00350749
7 *2949:A *3202:A 0
8 *2949:A *355:10 0.000184527
9 *335:12 *2918:A1 0.000133338
10 *335:12 *3165:RESET_B 0
11 *335:12 *427:22 4.83838e-05
12 *335:12 *429:55 0.000265956
13 *335:12 *429:109 7.39923e-05
14 *335:29 *2965:A1 5.88461e-05
15 *335:29 *336:29 0.000206349
16 *335:29 *429:18 0.000263371
17 *335:29 *429:31 0.000177852
18 *335:29 *429:55 0.000670258
19 *2888:A *335:10 3.16665e-05
20 *2907:A *2949:A 3.18198e-05
21 *3232:A *335:12 0
22 *3241:A *2949:A 0.00017184
23 *98:8 *335:12 0
24 *163:24 *2949:A 0.0001164
25 *199:118 *2949:A 0.000397596
26 *223:10 *2949:A 3.83778e-05
27 *283:8 *335:29 5.3304e-05
28 *292:8 *335:12 0.000116956
29 *292:12 *335:12 0.000414403
30 *308:12 *335:12 0
31 *327:10 *335:29 0.000234458
32 *327:27 *335:10 2.46922e-05
33 *327:27 *335:12 0.000777197
34 *327:27 *335:29 0.000429183
*RES
1 *2888:X *335:10 39.4189 
2 *335:10 *335:12 64.0589 
3 *335:12 *3269:A 38 
4 *335:10 *335:29 48.7775 
5 *335:29 *2949:A 45.395 
*END

*D_NET *336 0.0128955
*CONN
*I *2949:B I *D sky130_fd_sc_hd__or4_1
*I *3270:A I *D sky130_fd_sc_hd__clkbuf_4
*I *2908:X O *D sky130_fd_sc_hd__buf_1
*CAP
1 *2949:B 0.000114075
2 *3270:A 0
3 *2908:X 4.24857e-05
4 *336:29 0.00127303
5 *336:10 0.00390872
6 *336:8 0.00511017
7 *2949:B *3202:A 0
8 *336:10 *2965:A0 0
9 *336:10 *3182:RESET_B 0
10 *336:10 *345:106 0
11 *336:10 *430:14 0
12 *336:29 *429:18 3.70071e-06
13 *83:10 *336:10 0
14 *116:14 *2949:B 0.000216831
15 *145:8 *336:8 5.50106e-05
16 *153:16 *336:29 9.87533e-05
17 *199:110 *2949:B 8.62876e-05
18 *199:133 *336:29 2.76611e-06
19 *203:71 *336:10 0.000271935
20 *203:100 *336:10 0.000541427
21 *203:100 *336:29 6.44678e-05
22 *278:10 *336:10 0
23 *278:16 *336:10 0
24 *278:132 *336:10 0
25 *283:8 *336:29 6.37603e-05
26 *309:21 *336:10 0.000262496
27 *317:29 *336:10 0.000397744
28 *327:10 *336:10 0
29 *332:33 *336:29 9.38299e-05
30 *332:43 *336:10 5.56306e-05
31 *332:43 *336:29 2.60152e-05
32 *335:29 *336:29 0.000206349
*RES
1 *2908:X *336:8 38.6214 
2 *336:8 *336:10 81.1379 
3 *336:10 *3270:A 38 
4 *336:8 *336:29 47.69 
5 *336:29 *2949:B 40.9621 
*END

*D_NET *337 0.0130209
*CONN
*I *3271:A I *D sky130_fd_sc_hd__clkbuf_4
*I *2949:C I *D sky130_fd_sc_hd__or4_1
*I *2928:X O *D sky130_fd_sc_hd__buf_1
*CAP
1 *3271:A 0
2 *2949:C 0
3 *2928:X 0
4 *337:37 0.00238102
5 *337:31 0.00289678
6 *337:18 0.00153193
7 *337:6 0.00204769
8 *337:18 *355:10 0.000201741
9 *337:31 *3120:RESET_B 2.8521e-05
10 *337:31 *3125:RESET_B 7.53384e-06
11 *337:31 *343:57 4.21281e-05
12 *337:31 *343:67 6.24895e-05
13 *337:31 *343:73 0.000171131
14 *337:31 *343:75 1.72202e-05
15 *337:37 *3125:RESET_B 1.67374e-05
16 *2975:S *337:18 0.000172996
17 *3120:CLK *337:31 0.000355822
18 *3120:D *337:31 2.93845e-05
19 *3125:CLK *337:37 4.93809e-05
20 *163:32 *337:18 0.000539293
21 *173:10 *337:18 0.000332375
22 *173:10 *337:31 0.000127272
23 *199:118 *337:18 4.75976e-05
24 *199:162 *337:18 0.000139352
25 *200:10 *337:18 0.000178517
26 *202:42 *337:18 0.000571494
27 *206:59 *337:18 0.000330144
28 *206:59 *337:31 0.000138718
29 *276:27 *337:37 2.37888e-05
30 *284:6 *337:31 9.91798e-05
31 *284:29 *337:31 0.000289852
32 *332:20 *337:31 0.000190826
*RES
1 *2928:X *337:6 38 
2 *337:6 *337:18 49.7171 
3 *337:18 *2949:C 23 
4 *337:6 *337:31 31.24 
5 *337:31 *337:37 34.2407 
6 *337:37 *3271:A 23 
*END

*D_NET *338 0.0222942
*CONN
*I *2949:D I *D sky130_fd_sc_hd__or4_1
*I *3272:A I *D sky130_fd_sc_hd__clkbuf_4
*I *2948:X O *D sky130_fd_sc_hd__dlymetal6s2s_1
*CAP
1 *2949:D 0
2 *3272:A 0
3 *2948:X 2.00578e-05
4 *338:49 0.00110596
5 *338:43 0.00212791
6 *338:30 0.00178551
7 *338:28 0.00178551
8 *338:26 0.00278603
9 *338:24 0.00395709
10 *338:6 0.00221306
11 *338:24 *2909:A1 0.000223692
12 *338:26 *419:6 4.57742e-05
13 *338:30 *362:8 0
14 *338:49 *2963:A0 4.84045e-05
15 *338:49 *344:29 0
16 *338:49 *344:45 0
17 *338:49 *355:10 9.75779e-05
18 *338:49 *361:8 0.000114656
19 *2947:B *338:24 7.42553e-05
20 *2948:A *338:6 0
21 *2948:A *338:24 0.000141232
22 *2995:A0 *338:24 4.21471e-05
23 *2995:A0 *338:43 0.000276915
24 *3043:A1 *338:24 7.73541e-05
25 *3155:CLK *338:26 0.000308723
26 *2:17 *338:30 0
27 *116:14 *338:49 0.000243587
28 *163:24 *338:49 9.5877e-05
29 *182:14 *338:24 5.08322e-05
30 *182:14 *338:43 0.000216272
31 *195:126 *338:49 0
32 *195:141 *338:43 0.000874379
33 *195:141 *338:49 0
34 *215:10 *338:49 0.000141303
35 *237:10 *338:26 2.03764e-06
36 *280:71 *338:43 0
37 *285:8 *338:24 4.21023e-05
38 *285:23 *338:24 5.67058e-05
39 *306:10 *338:24 4.08537e-05
40 *318:12 *338:30 0.00329843
41 *318:68 *338:49 0
*RES
1 *2948:X *338:6 23.4971 
2 *338:6 *338:24 48.4771 
3 *338:24 *338:26 37.7829 
4 *338:26 *338:28 15 
5 *338:28 *338:30 49.0929 
6 *338:30 *3272:A 38 
7 *338:6 *338:43 36.605 
8 *338:43 *338:49 37.3714 
9 *338:49 *2949:D 23 
*END

*D_NET *339 0.013154
*CONN
*I *3168:RESET_B I *D sky130_fd_sc_hd__dfrtp_1
*I *3136:RESET_B I *D sky130_fd_sc_hd__dfrtp_1
*I *3144:RESET_B I *D sky130_fd_sc_hd__dfrtp_1
*I *3184:RESET_B I *D sky130_fd_sc_hd__dfrtp_1
*I *3152:RESET_B I *D sky130_fd_sc_hd__dfrtp_1
*I *3156:RESET_B I *D sky130_fd_sc_hd__dfrtp_1
*I *3180:RESET_B I *D sky130_fd_sc_hd__dfrtp_1
*I *3188:RESET_B I *D sky130_fd_sc_hd__dfrtp_1
*I *3148:RESET_B I *D sky130_fd_sc_hd__dfrtp_1
*I *3140:RESET_B I *D sky130_fd_sc_hd__dfrtp_1
*I *3200:X O *D sky130_fd_sc_hd__clkbuf_4
*CAP
1 *3168:RESET_B 0.000150799
2 *3136:RESET_B 3.8165e-05
3 *3144:RESET_B 0.000380076
4 *3184:RESET_B 0.000107474
5 *3152:RESET_B 3.79987e-05
6 *3156:RESET_B 6.39565e-05
7 *3180:RESET_B 8.98562e-05
8 *3188:RESET_B 0.0001224
9 *3148:RESET_B 0.000181186
10 *3140:RESET_B 0.000242561
11 *3200:X 4.25104e-05
12 *339:113 0.000361576
13 *339:91 0.000654578
14 *339:81 0.000427361
15 *339:56 0.000723509
16 *339:54 0.000883456
17 *339:38 0.000952779
18 *339:26 0.00068568
19 *339:24 0.00119722
20 *339:20 0.00191043
21 *339:8 0.000825671
22 *3148:RESET_B *2911:A2 6.17437e-06
23 *3156:RESET_B *420:8 1.24376e-05
24 *3168:RESET_B *424:58 1.60273e-05
25 *339:38 *412:19 0.000114083
26 *339:54 *2911:A2 0.000173452
27 *339:54 *420:14 0
28 *339:56 *390:43 0
29 *339:91 *416:36 0
30 *2911:B1 *339:38 0
31 *2911:B1 *339:54 0.000187335
32 *2911:B1 *339:56 0.000620099
33 *3038:A *3184:RESET_B 2.02517e-05
34 *3045:S *339:38 0
35 *3045:S *339:54 4.83778e-05
36 *3184:D *3184:RESET_B 5.12254e-05
37 *57:10 *3140:RESET_B 0
38 *57:10 *339:20 0
39 *97:8 *3188:RESET_B 0
40 *97:8 *339:56 0
41 *101:8 *3144:RESET_B 5.56203e-05
42 *101:8 *339:91 4.4382e-05
43 *199:14 *339:20 0
44 *207:16 *3140:RESET_B 0.000225256
45 *207:16 *339:8 5.50049e-05
46 *207:16 *339:20 1.01436e-05
47 *207:118 *339:38 0
48 *207:118 *339:91 0
49 *214:8 *339:20 4.85126e-05
50 *234:8 *3144:RESET_B 3.72639e-05
51 *234:8 *339:91 6.07611e-06
52 *238:8 *339:56 4.08537e-05
53 *274:29 *3188:RESET_B 0
54 *275:27 *3136:RESET_B 9.36858e-05
55 *275:70 *3140:RESET_B 9.18694e-05
56 *307:10 *3180:RESET_B 1.39317e-05
57 *307:10 *339:56 0.000138727
58 *322:16 *3144:RESET_B 0.000309285
59 *325:10 *339:38 0.000265185
60 *325:18 *3144:RESET_B 7.75329e-06
61 *325:18 *339:38 8.27032e-06
62 *325:18 *339:81 0.000116487
63 *325:18 *339:91 9.73673e-05
64 *326:22 *3156:RESET_B 0.00013273
65 *326:60 *339:20 2.68708e-05
*RES
1 *3200:X *339:8 38.6214 
2 *339:8 *3140:RESET_B 20.3961 
3 *339:8 *339:20 9.65286 
4 *339:20 *339:24 35.6314 
5 *339:24 *339:26 15 
6 *339:26 *339:38 25.8336 
7 *339:38 *3148:RESET_B 2.8275 
8 *339:38 *339:54 21.5871 
9 *339:54 *339:56 11.4136 
10 *339:56 *3188:RESET_B 16.9057 
11 *339:56 *3180:RESET_B 16.5018 
12 *339:54 *3156:RESET_B 16.5018 
13 *339:26 *339:81 5.42714 
14 *339:81 *3152:RESET_B 15.5489 
15 *339:81 *339:91 4.01857 
16 *339:91 *3184:RESET_B 16.9989 
17 *339:91 *3144:RESET_B 22.8196 
18 *339:20 *339:113 3.31429 
19 *339:113 *3136:RESET_B 16.0254 
20 *339:113 *3168:RESET_B 17.4546 
*END

*D_NET *340 0.0193129
*CONN
*I *2982:A I *D sky130_fd_sc_hd__and3_1
*I *2972:A_N I *D sky130_fd_sc_hd__and3b_1
*I *2967:A I *D sky130_fd_sc_hd__or3b_1
*I *2977:C I *D sky130_fd_sc_hd__and3b_1
*I *3261:X O *D sky130_fd_sc_hd__clkbuf_2
*CAP
1 *2982:A 0
2 *2972:A_N 5.479e-05
3 *2967:A 0
4 *2977:C 0
5 *3261:X 0
6 *340:40 0.000185573
7 *340:30 0.000395169
8 *340:22 0.00100179
9 *340:16 0.0020225
10 *340:8 0.00526929
11 *340:6 0.00409378
12 *340:8 *3155:RESET_B 0
13 *340:8 *343:85 0
14 *340:8 *408:10 0
15 *340:8 *408:23 0
16 *2972:B *2972:A_N 0.000117759
17 *2972:B *340:30 5.41288e-05
18 *2978:A *340:40 2.34437e-05
19 *2982:B *340:30 5.93127e-05
20 *2982:C *340:30 0.00011045
21 *3029:A1 *340:16 0.000225701
22 *3188:D *340:22 0.000438114
23 *3188:D *340:30 0.00010018
24 *69:8 *340:16 0
25 *72:10 *340:8 2.29192e-05
26 *93:10 *340:8 6.6869e-05
27 *203:12 *340:8 0
28 *203:12 *340:16 0
29 *203:40 *340:8 2.67053e-05
30 *237:10 *340:8 0.000171906
31 *274:10 *340:16 0
32 *274:92 *340:16 0.000197479
33 *276:48 *340:8 0
34 *325:10 *340:16 0.000932855
35 *325:18 *340:8 0.00199415
36 *325:18 *340:16 0.000697028
37 *326:14 *340:16 0.000489279
38 *329:21 *340:40 2.54046e-05
39 *329:30 *340:30 2.93845e-05
40 *330:18 *2972:A_N 0.000172996
41 *330:20 *2972:A_N 5.3304e-05
42 *330:20 *340:30 0.000141954
43 *330:40 *340:40 0.000138718
*RES
1 *3261:X *340:6 38 
2 *340:6 *340:8 89.0611 
3 *340:8 *340:16 49.8932 
4 *340:16 *340:22 14.1271 
5 *340:22 *340:30 5.09571 
6 *340:30 *340:40 34.0807 
7 *340:40 *2977:C 23 
8 *340:30 *2967:A 23 
9 *340:30 *2972:A_N 25.5271 
10 *340:22 *2982:A 23 
*END

*D_NET *341 0.0142807
*CONN
*I *3128:RESET_B I *D sky130_fd_sc_hd__dfrtp_1
*I *3134:RESET_B I *D sky130_fd_sc_hd__dfrtp_1
*I *3150:RESET_B I *D sky130_fd_sc_hd__dfrtp_1
*I *3132:RESET_B I *D sky130_fd_sc_hd__dfrtp_1
*I *3158:RESET_B I *D sky130_fd_sc_hd__dfrtp_1
*I *3172:RESET_B I *D sky130_fd_sc_hd__dfrtp_1
*I *3164:RESET_B I *D sky130_fd_sc_hd__dfrtp_1
*I *3201:X O *D sky130_fd_sc_hd__buf_2
*CAP
1 *3128:RESET_B 0.00114118
2 *3134:RESET_B 0.00161702
3 *3150:RESET_B 4.79874e-05
4 *3132:RESET_B 0.000794462
5 *3158:RESET_B 0
6 *3172:RESET_B 0.000197444
7 *3164:RESET_B 0.0011041
8 *3201:X 0.000309146
9 *341:65 0.000800146
10 *341:49 0.00125233
11 *341:10 0.00118021
12 *341:8 0.000764244
13 *3132:RESET_B *2871:A2 0.000176234
14 *3132:RESET_B *2891:A2 2.4732e-05
15 *3132:RESET_B *396:10 9.8971e-06
16 *3132:RESET_B *396:29 3.45967e-05
17 *3134:RESET_B *414:14 0
18 *3172:RESET_B *365:8 3.21223e-05
19 *341:8 *3201:A 7.59964e-05
20 *341:8 *344:12 5.30478e-05
21 *341:10 *422:10 0
22 *341:49 *422:10 0
23 *341:49 *422:36 0
24 *341:65 *414:14 0
25 *341:65 *430:30 0
26 *2897:C *3128:RESET_B 6.17437e-06
27 *2897:D *3128:RESET_B 0.000219479
28 *3049:A1 *341:49 0
29 *3049:A1 *341:65 0
30 *3128:D *3128:RESET_B 5.50049e-05
31 *3134:CLK *3128:RESET_B 9.84137e-05
32 *3164:CLK *3164:RESET_B 9.5877e-05
33 *3215:A *3172:RESET_B 0.000187129
34 *22:17 *3134:RESET_B 0.000118028
35 *75:10 *341:10 0
36 *81:10 *3172:RESET_B 0
37 *128:14 *3128:RESET_B 0.000108682
38 *130:12 *3128:RESET_B 1.13812e-05
39 *134:12 *3134:RESET_B 0.000533254
40 *153:16 *3134:RESET_B 0.000198471
41 *171:10 *341:49 4.21594e-06
42 *171:10 *341:65 5.86165e-05
43 *172:20 *3128:RESET_B 4.81382e-05
44 *172:20 *3134:RESET_B 0
45 *172:20 *341:65 0
46 *194:30 *3164:RESET_B 4.90177e-05
47 *194:74 *3134:RESET_B 0.000111106
48 *194:82 *3128:RESET_B 4.70852e-05
49 *194:93 *3128:RESET_B 2.89399e-05
50 *195:100 *3128:RESET_B 0
51 *203:60 *3150:RESET_B 5.50049e-05
52 *206:136 *3164:RESET_B 0.00025894
53 *207:22 *3132:RESET_B 0.00170994
54 *207:37 *3132:RESET_B 0
55 *232:8 *341:65 0
56 *240:8 *341:10 1.14452e-05
57 *240:8 *341:49 7.70737e-05
58 *275:31 *3128:RESET_B 0.000192113
59 *275:47 *3172:RESET_B 0.000201799
60 *278:36 *3164:RESET_B 0
61 *299:12 *3172:RESET_B 0.000180514
62 *333:18 *341:10 0
63 *333:18 *341:49 0
*RES
1 *3201:X *341:8 42.4329 
2 *341:8 *341:10 4.37071 
3 *341:10 *3164:RESET_B 30.8568 
4 *3164:RESET_B *3172:RESET_B 36.2868 
5 *341:10 *3158:RESET_B 15 
6 *341:8 *341:49 2.96214 
7 *341:49 *3132:RESET_B 35.9732 
8 *341:49 *341:65 5.075 
9 *341:65 *3150:RESET_B 16.0461 
10 *341:65 *3134:RESET_B 25.7093 
11 *3134:RESET_B *3128:RESET_B 48.4979 
*END

*D_NET *342 0.0186785
*CONN
*I *3163:RESET_B I *D sky130_fd_sc_hd__dfrtp_1
*I *3131:RESET_B I *D sky130_fd_sc_hd__dfrtp_1
*I *3165:RESET_B I *D sky130_fd_sc_hd__dfrtp_1
*I *3149:RESET_B I *D sky130_fd_sc_hd__dfrtp_1
*I *3133:RESET_B I *D sky130_fd_sc_hd__dfrtp_1
*I *3157:RESET_B I *D sky130_fd_sc_hd__dfrtp_1
*I *3123:RESET_B I *D sky130_fd_sc_hd__dfrtp_1
*I *3121:RESET_B I *D sky130_fd_sc_hd__dfrtp_4
*I *3160:RESET_B I *D sky130_fd_sc_hd__dfrtp_1
*I *3124:RESET_B I *D sky130_fd_sc_hd__dfrtp_1
*I *3202:X O *D sky130_fd_sc_hd__clkbuf_4
*CAP
1 *3163:RESET_B 0.000382107
2 *3131:RESET_B 0.000202117
3 *3165:RESET_B 0.000754451
4 *3149:RESET_B 0
5 *3133:RESET_B 0.000219918
6 *3157:RESET_B 0.00109434
7 *3123:RESET_B 0
8 *3121:RESET_B 0.00060617
9 *3160:RESET_B 0.000836808
10 *3124:RESET_B 0.000107613
11 *3202:X 0.000747433
12 *342:98 0.00161527
13 *342:71 0.000577896
14 *342:69 0.00220677
15 *342:56 0.00170095
16 *342:49 0.00113824
17 *342:24 0.00113863
18 *342:10 0.00101903
19 *3121:RESET_B *344:29 5.72853e-05
20 *3163:RESET_B *389:71 0
21 *3165:RESET_B *377:8 0
22 *342:10 *3202:A 0.000183457
23 *342:10 *344:29 0.000113153
24 *342:24 *344:29 0.000101446
25 *342:69 *2938:A1 7.88926e-05
26 *342:69 *2938:A2 9.8971e-06
27 *342:69 *421:6 0.000101775
28 *342:71 *2938:A1 0
29 *342:71 *429:67 0
30 *2999:A0 *3133:RESET_B 0
31 *3131:CLK *3131:RESET_B 0
32 *74:10 *342:56 0
33 *80:10 *3163:RESET_B 0.000114083
34 *109:14 *342:49 0.000360011
35 *109:14 *342:56 0.000303607
36 *153:16 *3124:RESET_B 9.54129e-05
37 *153:16 *342:24 6.68822e-05
38 *153:26 *3160:RESET_B 0.000291067
39 *174:8 *342:71 0
40 *194:104 *3131:RESET_B 0.000130685
41 *194:104 *3163:RESET_B 9.70962e-05
42 *194:119 *3165:RESET_B 0
43 *195:115 *3121:RESET_B 0.000318429
44 *195:115 *342:49 0.000451358
45 *195:126 *342:49 7.73901e-05
46 *195:126 *342:56 0.000188904
47 *195:141 *342:56 0.000208169
48 *199:102 *342:10 0.000111852
49 *199:102 *342:24 0.000110669
50 *199:162 *3121:RESET_B 0.000194318
51 *199:162 *342:49 4.36616e-05
52 *213:8 *3131:RESET_B 0.000274543
53 *277:90 *342:69 0
54 *277:103 *3131:RESET_B 0
55 *277:103 *3163:RESET_B 0
56 *287:6 *3160:RESET_B 0.000180476
57 *287:27 *3160:RESET_B 5.40241e-05
58 *292:8 *3165:RESET_B 0
59 *292:12 *3133:RESET_B 0
60 *292:12 *3165:RESET_B 0
61 *292:12 *342:71 0
62 *298:16 *342:56 0
63 *298:16 *342:98 0
64 *316:14 *3165:RESET_B 0
65 *316:14 *342:69 1.21972e-05
66 *316:14 *342:71 0
67 *319:45 *3165:RESET_B 0
68 *327:46 *3133:RESET_B 0
69 *327:46 *342:71 0
70 *335:12 *3165:RESET_B 0
*RES
1 *3202:X *342:10 48.7507 
2 *342:10 *3124:RESET_B 16.9782 
3 *342:10 *342:24 18.1279 
4 *342:24 *3160:RESET_B 12.2318 
5 *342:24 *3121:RESET_B 34.3707 
6 *3121:RESET_B *342:49 26.2996 
7 *342:49 *3123:RESET_B 15 
8 *342:49 *342:56 17.0479 
9 *342:56 *3157:RESET_B 15 
10 *3157:RESET_B *342:69 30.4839 
11 *342:69 *342:71 6.13143 
12 *342:71 *3133:RESET_B 18.6664 
13 *342:71 *3149:RESET_B 15 
14 *342:69 *3165:RESET_B 27.8221 
15 *342:56 *342:98 43.1329 
16 *342:98 *3131:RESET_B 20.4271 
17 *342:98 *3163:RESET_B 23.1096 
*END

*D_NET *343 0.0201439
*CONN
*I *3187:RESET_B I *D sky130_fd_sc_hd__dfrtp_1
*I *3179:RESET_B I *D sky130_fd_sc_hd__dfrtp_1
*I *3126:RESET_B I *D sky130_fd_sc_hd__dfrtp_1
*I *3176:RESET_B I *D sky130_fd_sc_hd__dfrtp_1
*I *3155:RESET_B I *D sky130_fd_sc_hd__dfrtp_1
*I *3147:RESET_B I *D sky130_fd_sc_hd__dfrtp_1
*I *3125:RESET_B I *D sky130_fd_sc_hd__dfrtp_1
*I *3120:RESET_B I *D sky130_fd_sc_hd__dfrtp_4
*I *3139:RESET_B I *D sky130_fd_sc_hd__dfrtp_1
*I *3202:A I *D sky130_fd_sc_hd__clkbuf_4
*I *3203:X O *D sky130_fd_sc_hd__clkbuf_4
*CAP
1 *3187:RESET_B 0.000200179
2 *3179:RESET_B 0
3 *3126:RESET_B 0
4 *3176:RESET_B 0.000264228
5 *3155:RESET_B 0.000143557
6 *3147:RESET_B 6.04171e-05
7 *3125:RESET_B 4.50232e-05
8 *3120:RESET_B 7.40153e-06
9 *3139:RESET_B 5.44063e-06
10 *3202:A 0.000535444
11 *3203:X 3.53803e-05
12 *343:120 0.000705068
13 *343:113 0.000994161
14 *343:85 0.000610692
15 *343:75 0.000500158
16 *343:73 0.000917655
17 *343:67 0.00128263
18 *343:57 0.00105207
19 *343:37 0.0013832
20 *343:31 0.00148973
21 *343:10 0.00153912
22 *3202:A *344:45 2.57449e-05
23 *3202:A *429:18 0.000141797
24 *343:31 *2963:A0 0.000407601
25 *343:31 *2963:A1 4.75206e-05
26 *343:31 *344:45 0.000123699
27 *343:57 *2963:A1 0.000187129
28 *343:57 *428:16 5.50106e-05
29 *343:113 *427:96 0.000238358
30 *343:113 *428:27 0.000111852
31 *343:120 *427:78 8.92738e-05
32 *343:120 *427:96 8.06039e-05
33 *2949:A *3202:A 0
34 *2949:B *3202:A 0
35 *2971:A *343:37 1.37232e-05
36 *3120:CLK *3176:RESET_B 3.47781e-05
37 *3120:CLK *343:73 0.000300817
38 *3120:CLK *343:75 5.3304e-05
39 *3120:CLK *343:85 3.47781e-05
40 *3120:D *343:73 5.3304e-05
41 *3147:CLK *3147:RESET_B 7.51159e-05
42 *96:10 *3187:RESET_B 0
43 *109:14 *343:31 4.08641e-05
44 *116:14 *3202:A 0
45 *128:14 *343:31 8.85189e-05
46 *147:10 *3176:RESET_B 0
47 *153:16 *3202:A 8.83205e-05
48 *173:10 *343:113 0
49 *203:25 *3176:RESET_B 7.30875e-05
50 *203:40 *3176:RESET_B 5.86432e-05
51 *203:40 *343:85 0.00104585
52 *206:59 *3187:RESET_B 0
53 *206:59 *343:120 0
54 *223:10 *3202:A 0
55 *276:10 *343:85 0.000269323
56 *276:12 *343:85 0.000159531
57 *276:27 *3125:RESET_B 8.79516e-05
58 *276:27 *343:75 5.3304e-05
59 *276:70 *3155:RESET_B 1.01436e-05
60 *276:70 *343:85 0.000792885
61 *276:86 *3155:RESET_B 0
62 *277:10 *343:57 8.62783e-05
63 *282:19 *3202:A 0
64 *282:19 *343:10 9.33529e-06
65 *282:19 *343:31 0
66 *284:14 *3176:RESET_B 3.31683e-05
67 *318:28 *343:113 0.000353352
68 *318:55 *3139:RESET_B 2.03425e-05
69 *318:55 *343:37 0.000301555
70 *318:55 *343:57 7.49224e-05
71 *325:49 *343:57 2.02517e-05
72 *332:10 *343:113 0.00109817
73 *332:10 *343:120 0.0007969
74 *332:20 *343:57 1.55097e-05
75 *332:20 *343:113 0.000161121
76 *332:29 *343:31 2.94414e-05
77 *337:31 *3120:RESET_B 2.8521e-05
78 *337:31 *3125:RESET_B 7.53384e-06
79 *337:31 *343:57 4.21281e-05
80 *337:31 *343:67 6.24895e-05
81 *337:31 *343:73 0.000171131
82 *337:31 *343:75 1.72202e-05
83 *337:37 *3125:RESET_B 1.67374e-05
84 *340:8 *3155:RESET_B 0
85 *340:8 *343:85 0
86 *342:10 *3202:A 0.000183457
*RES
1 *3203:X *343:10 38.9425 
2 *343:10 *3202:A 48.4711 
3 *343:10 *343:31 45.7946 
4 *343:31 *343:37 24.6943 
5 *343:37 *3139:RESET_B 0.548929 
6 *343:37 *343:57 43.4436 
7 *343:57 *3120:RESET_B 0.548929 
8 *343:57 *343:67 3.02429 
9 *343:67 *343:73 9.83929 
10 *343:73 *343:75 1.09786 
11 *343:75 *3125:RESET_B 1.02536 
12 *343:75 *343:85 31.6957 
13 *343:85 *3147:RESET_B 16.5018 
14 *343:85 *3155:RESET_B 17.2579 
15 *343:73 *3176:RESET_B 35.7793 
16 *343:67 *343:113 31.6957 
17 *343:113 *3126:RESET_B 15 
18 *343:113 *343:120 13.1743 
19 *343:120 *3179:RESET_B 15 
20 *343:120 *3187:RESET_B 19.0186 
*END

*D_NET *344 0.018512
*CONN
*I *3201:A I *D sky130_fd_sc_hd__buf_2
*I *3203:A I *D sky130_fd_sc_hd__clkbuf_4
*I *3171:RESET_B I *D sky130_fd_sc_hd__dfrtp_1
*I *3189:RESET_B I *D sky130_fd_sc_hd__dfrtp_1
*I *3200:A I *D sky130_fd_sc_hd__clkbuf_4
*I *3204:X O *D sky130_fd_sc_hd__clkbuf_2
*CAP
1 *3201:A 9.80073e-05
2 *3203:A 2.81266e-05
3 *3171:RESET_B 0.00021228
4 *3189:RESET_B 0.00021228
5 *3200:A 0
6 *3204:X 0
7 *344:53 0.000353358
8 *344:45 0.00238867
9 *344:39 0.00203532
10 *344:37 0.000449813
11 *344:29 0.00173115
12 *344:22 0.000848318
13 *344:12 0.0030214
14 *344:4 0.000961629
15 *3171:RESET_B *389:30 0.000307938
16 *344:22 *2872:A2 0.00027361
17 *344:22 *2997:A1 4.39619e-05
18 *344:22 *396:21 2.25809e-05
19 *344:22 *404:35 4.21062e-05
20 *344:22 *428:42 2.26778e-05
21 *344:45 *2938:A1 0
22 *344:45 *2963:A0 0.000218952
23 *344:45 *421:14 3.56537e-05
24 *344:45 *429:18 3.70187e-05
25 *344:45 *429:67 0
26 *344:53 *3111:A0 6.17437e-06
27 *2997:S *344:22 0.000146822
28 *2998:A *344:22 5.12254e-05
29 *3050:A *344:12 0.00010018
30 *3121:RESET_B *344:29 5.72853e-05
31 *3128:CLK *344:29 0.000215722
32 *3165:CLK *3171:RESET_B 0.000192032
33 *3202:A *344:45 2.57449e-05
34 *67:10 *344:29 0
35 *75:10 *344:12 5.41385e-05
36 *82:10 *344:45 6.22372e-05
37 *111:8 *344:22 4.8599e-05
38 *111:12 *344:29 0.000709354
39 *116:14 *3203:A 1.94812e-05
40 *116:14 *344:29 0
41 *116:14 *344:37 4.57742e-05
42 *130:8 *344:22 2.13733e-05
43 *194:51 *344:12 0
44 *194:51 *344:29 0
45 *195:115 *344:29 0.000173179
46 *199:102 *344:29 0.000881788
47 *199:148 *344:29 5.62433e-05
48 *199:162 *344:29 0.000247687
49 *206:96 *344:53 0.000534925
50 *206:104 *344:45 0.000148803
51 *207:16 *344:22 5.50106e-05
52 *231:10 *344:45 0.000171906
53 *271:8 *344:45 0
54 *271:8 *344:53 0
55 *275:27 *344:29 0.000135616
56 *275:35 *344:29 0
57 *275:37 *344:12 0
58 *275:37 *344:29 0
59 *277:123 *3171:RESET_B 0.000226205
60 *282:19 *344:45 0
61 *298:10 *3171:RESET_B 0.000230476
62 *298:10 *344:53 0
63 *316:14 *344:45 0
64 *318:68 *344:29 0
65 *326:60 *344:22 8.1796e-05
66 *338:49 *344:29 0
67 *338:49 *344:45 0
68 *341:8 *3201:A 7.59964e-05
69 *341:8 *344:12 5.30478e-05
70 *342:10 *344:29 0.000113153
71 *342:24 *344:29 0.000101446
72 *343:31 *344:45 0.000123699
*RES
1 *3204:X *344:4 23 
2 *344:4 *344:12 31.1986 
3 *344:12 *344:22 31.53 
4 *344:22 *3200:A 23 
5 *344:12 *344:29 37.4721 
6 *344:29 *344:37 21.9807 
7 *344:37 *344:39 15 
8 *344:39 *344:45 41.0557 
9 *344:45 *344:53 38.12 
10 *344:53 *3189:RESET_B 15 
11 *3189:RESET_B *3171:RESET_B 8.09929 
12 *344:37 *3203:A 23.6214 
13 *344:4 *3201:A 25.5479 
*END

*D_NET *345 0.0162611
*CONN
*I *3169:RESET_B I *D sky130_fd_sc_hd__dfrtp_1
*I *3161:RESET_B I *D sky130_fd_sc_hd__dfrtp_1
*I *3182:RESET_B I *D sky130_fd_sc_hd__dfrtp_1
*I *3190:RESET_B I *D sky130_fd_sc_hd__dfrtp_1
*I *3174:RESET_B I *D sky130_fd_sc_hd__dfrtp_1
*I *3116:RESET_B I *D sky130_fd_sc_hd__dfrtp_4
*I *3138:RESET_B I *D sky130_fd_sc_hd__dfrtp_1
*I *3122:RESET_B I *D sky130_fd_sc_hd__dfrtp_4
*I *3166:RESET_B I *D sky130_fd_sc_hd__dfrtp_1
*I *3142:RESET_B I *D sky130_fd_sc_hd__dfrtp_1
*I *3205:X O *D sky130_fd_sc_hd__clkbuf_4
*CAP
1 *3169:RESET_B 4.42216e-06
2 *3161:RESET_B 0.000313659
3 *3182:RESET_B 9.06737e-05
4 *3190:RESET_B 0
5 *3174:RESET_B 1.73355e-05
6 *3116:RESET_B 0.000632833
7 *3138:RESET_B 0.000135449
8 *3122:RESET_B 6.01031e-05
9 *3166:RESET_B 0.00103982
10 *3142:RESET_B 6.84591e-05
11 *3205:X 0.00049799
12 *345:106 0.000582426
13 *345:100 0.00117083
14 *345:70 0.00144368
15 *345:60 0.000947746
16 *345:38 0.00132793
17 *345:32 0.000602185
18 *345:28 0.00163177
19 *345:16 0.00123109
20 *345:8 0.00062012
21 *3122:RESET_B *430:10 4.58951e-05
22 *3138:RESET_B *424:26 9.25432e-05
23 *3161:RESET_B *373:28 0
24 *3166:RESET_B *2895:A1 0.000131843
25 *3166:RESET_B *367:8 7.03869e-05
26 *3166:RESET_B *406:25 0.000119224
27 *3166:RESET_B *430:102 7.52305e-05
28 *345:16 *373:28 0
29 *345:38 *2895:A1 0.000137153
30 *345:38 *2895:A2 2.5415e-05
31 *345:38 *406:25 3.84694e-05
32 *345:70 *430:10 0.000128401
33 *345:100 *354:10 0.000148402
34 *2875:B1 *3166:RESET_B 7.28922e-05
35 *3116:CLK *3116:RESET_B 5.50106e-05
36 *3116:D *3116:RESET_B 0.000100733
37 *3161:D *3161:RESET_B 5.67058e-05
38 *3169:D *345:8 0
39 *120:18 *3138:RESET_B 0.000136486
40 *194:36 *345:106 0.000445736
41 *198:33 *3166:RESET_B 0
42 *198:33 *345:38 0
43 *198:33 *345:60 0.000438156
44 *198:120 *345:28 9.99228e-05
45 *198:120 *345:32 3.82058e-06
46 *198:120 *345:100 8.4047e-05
47 *202:120 *3161:RESET_B 5.80128e-05
48 *206:171 *3161:RESET_B 0
49 *206:171 *345:28 1.30956e-05
50 *206:171 *345:100 0
51 *206:181 *3169:RESET_B 2.8521e-05
52 *206:181 *345:8 0.000199025
53 *206:181 *345:16 7.88926e-05
54 *224:8 *3166:RESET_B 0.000165844
55 *243:12 *345:16 0
56 *243:12 *345:28 0
57 *278:60 *345:100 0
58 *317:6 *345:106 1.76557e-05
59 *317:14 *345:106 0.000119969
60 *320:25 *345:100 0.000131067
61 *320:31 *345:100 3.83778e-05
62 *324:18 *3116:RESET_B 0.000270731
63 *327:10 *3182:RESET_B 0.000126343
64 *327:10 *345:106 6.70363e-05
65 *328:14 *345:38 0
66 *328:14 *345:100 0
67 *332:43 *3138:RESET_B 2.15102e-05
68 *336:10 *3182:RESET_B 0
69 *336:10 *345:106 0
*RES
1 *3205:X *345:8 30.3121 
2 *345:8 *345:16 17.5168 
3 *345:16 *345:28 27.3975 
4 *345:28 *345:32 2.07143 
5 *345:32 *345:38 23.3064 
6 *345:38 *3142:RESET_B 16.0254 
7 *345:38 *3166:RESET_B 33.1975 
8 *3166:RESET_B *345:60 35.7793 
9 *345:60 *3122:RESET_B 1.02536 
10 *345:60 *345:70 13.0293 
11 *345:70 *3138:RESET_B 32.9311 
12 *345:70 *3116:RESET_B 11.5068 
13 *345:32 *3174:RESET_B 0.548929 
14 *345:28 *345:100 42.47 
15 *345:100 *345:106 27.905 
16 *345:106 *3190:RESET_B 15 
17 *345:106 *3182:RESET_B 16.9057 
18 *345:16 *3161:RESET_B 20.3029 
19 *345:8 *3169:RESET_B 0.548929 
*END

*D_NET *346 0.0161395
*CONN
*I *3135:RESET_B I *D sky130_fd_sc_hd__dfrtp_1
*I *3167:RESET_B I *D sky130_fd_sc_hd__dfrtp_1
*I *3145:RESET_B I *D sky130_fd_sc_hd__dfrtp_1
*I *3117:RESET_B I *D sky130_fd_sc_hd__dfrtp_4
*I *3129:RESET_B I *D sky130_fd_sc_hd__dfrtp_1
*I *3137:RESET_B I *D sky130_fd_sc_hd__dfrtp_1
*I *3177:RESET_B I *D sky130_fd_sc_hd__dfrtp_1
*I *3185:RESET_B I *D sky130_fd_sc_hd__dfrtp_1
*I *3153:RESET_B I *D sky130_fd_sc_hd__dfrtp_1
*I *3206:X O *D sky130_fd_sc_hd__clkbuf_4
*CAP
1 *3135:RESET_B 0.000192229
2 *3167:RESET_B 0.000182292
3 *3145:RESET_B 1.33786e-05
4 *3117:RESET_B 1.32187e-05
5 *3129:RESET_B 0.000181479
6 *3137:RESET_B 3.30162e-05
7 *3177:RESET_B 0.000164954
8 *3185:RESET_B 6.84887e-05
9 *3153:RESET_B 0.000176666
10 *3206:X 0
11 *346:111 0.000966759
12 *346:77 0.0011229
13 *346:67 0.00262787
14 *346:41 0.000997505
15 *346:33 0.00254737
16 *346:29 0.00114562
17 *346:16 0.00176932
18 *346:4 0.000298555
19 *3135:RESET_B *399:10 2.95783e-05
20 *3137:RESET_B *2991:A1 2.57362e-05
21 *3153:RESET_B *417:8 0.000140689
22 *346:67 *409:24 1.794e-05
23 *346:67 *425:8 0.000182826
24 *346:77 *2991:A1 0.000112548
25 *346:111 *366:8 0.000169683
26 *2992:A *346:77 5.5792e-05
27 *3024:A *3145:RESET_B 1.2704e-05
28 *3024:A *346:29 9.97387e-06
29 *3024:A *346:33 4.05309e-05
30 *3088:A *346:41 0.00010018
31 *3129:D *3129:RESET_B 1.1258e-05
32 *3206:A *346:16 2.93335e-05
33 *3216:A *3167:RESET_B 5.50049e-05
34 *70:8 *346:67 8.57577e-05
35 *94:8 *3177:RESET_B 5.21127e-05
36 *158:10 *346:67 0
37 *195:65 *346:77 0
38 *199:63 *3129:RESET_B 0.000217089
39 *207:45 *346:41 0
40 *207:45 *346:67 0
41 *207:62 *346:67 0
42 *259:8 *346:41 5.61414e-05
43 *279:16 *346:77 0.000418424
44 *279:44 *346:77 2.93845e-05
45 *279:96 *3177:RESET_B 0.000178813
46 *294:6 *3167:RESET_B 2.47128e-05
47 *294:25 *3135:RESET_B 0.000111852
48 *304:10 *3177:RESET_B 0
49 *312:8 *346:41 0
50 *312:18 *346:41 0
51 *312:18 *346:67 0
52 *323:22 *3135:RESET_B 0.000164291
53 *323:22 *346:111 0.00102942
54 *333:42 *346:29 0.000249634
55 *333:53 *346:16 2.64616e-05
*RES
1 *3206:X *346:4 23 
2 *346:4 *3153:RESET_B 3.90464 
3 *346:4 *346:16 16.5743 
4 *346:16 *346:29 31.9443 
5 *346:29 *346:33 16.5743 
6 *346:33 *346:41 29.0857 
7 *346:41 *3185:RESET_B 1.02536 
8 *346:41 *3177:RESET_B 33.8839 
9 *346:33 *346:67 41.8664 
10 *346:67 *346:77 48.3736 
11 *346:77 *3137:RESET_B 0.548929 
12 *346:77 *3129:RESET_B 34.0289 
13 *346:67 *3117:RESET_B 0.548929 
14 *346:29 *3145:RESET_B 0.548929 
15 *346:16 *346:111 16.3436 
16 *346:111 *3167:RESET_B 17.9311 
17 *346:111 *3135:RESET_B 18.7596 
*END

*D_NET *347 0.0167246
*CONN
*I *3183:RESET_B I *D sky130_fd_sc_hd__dfrtp_1
*I *3115:RESET_B I *D sky130_fd_sc_hd__dfrtp_4
*I *3178:RESET_B I *D sky130_fd_sc_hd__dfrtp_1
*I *3154:RESET_B I *D sky130_fd_sc_hd__dfrtp_1
*I *3146:RESET_B I *D sky130_fd_sc_hd__dfrtp_1
*I *3151:RESET_B I *D sky130_fd_sc_hd__dfrtp_1
*I *3175:RESET_B I *D sky130_fd_sc_hd__dfrtp_1
*I *3143:RESET_B I *D sky130_fd_sc_hd__dfrtp_1
*I *3159:RESET_B I *D sky130_fd_sc_hd__dfrtp_1
*I *3127:RESET_B I *D sky130_fd_sc_hd__dfrtp_1
*I *3207:X O *D sky130_fd_sc_hd__clkbuf_4
*CAP
1 *3183:RESET_B 1.27064e-05
2 *3115:RESET_B 0.000297462
3 *3178:RESET_B 0.000464785
4 *3154:RESET_B 0.000106888
5 *3146:RESET_B 0.000493471
6 *3151:RESET_B 0
7 *3175:RESET_B 7.33017e-05
8 *3143:RESET_B 9.57297e-05
9 *3159:RESET_B 0.000391924
10 *3127:RESET_B 7.49172e-05
11 *3207:X 0.000182963
12 *347:97 0.000717854
13 *347:95 0.00115483
14 *347:91 0.00109394
15 *347:80 0.000661129
16 *347:72 0.00137241
17 *347:52 0.001053
18 *347:18 0.00159096
19 *347:8 0.00130659
20 *347:6 0.000326908
21 *3127:RESET_B *391:8 4.36616e-05
22 *3143:RESET_B *2925:A2 9.32992e-05
23 *3146:RESET_B *418:10 8.4047e-05
24 *3146:RESET_B *418:38 0
25 *3154:RESET_B *418:10 1.59094e-05
26 *3175:RESET_B *348:16 9.73965e-05
27 *347:6 *348:145 1.83408e-05
28 *347:8 *2925:A2 4.34973e-05
29 *347:18 *2925:A2 0.000424658
30 *347:18 *391:8 2.32101e-05
31 *347:18 *423:29 0
32 *347:18 *423:63 0.000106351
33 *347:72 *356:8 8.85189e-05
34 *347:80 *423:29 0
35 *2884:B1 *3159:RESET_B 0.000404056
36 *2884:B1 *347:18 0
37 *2925:B1 *347:18 3.71251e-05
38 *2946:A *3146:RESET_B 9.46372e-05
39 *3041:A1 *3146:RESET_B 8.62876e-05
40 *3183:D *347:80 7.53384e-06
41 *3225:A *3159:RESET_B 3.70187e-05
42 *3242:A *347:72 7.92994e-05
43 *161:10 *347:18 5.26308e-05
44 *162:8 *347:18 1.14452e-05
45 *175:18 *3146:RESET_B 3.21926e-05
46 *175:18 *3154:RESET_B 1.8561e-06
47 *182:12 *3146:RESET_B 2.98648e-05
48 *203:146 *3143:RESET_B 0
49 *206:112 *3178:RESET_B 0.000224336
50 *233:10 *347:80 9.98891e-05
51 *233:10 *347:91 8.15327e-05
52 *281:38 *347:95 0.00065935
53 *281:65 *347:80 0
54 *281:143 *347:18 1.55097e-05
55 *302:12 *347:52 0.000167443
56 *302:12 *347:72 6.15434e-05
57 *313:16 *3146:RESET_B 5.30415e-05
58 *313:16 *3178:RESET_B 0.000200585
59 *313:16 *347:97 0.000110024
60 *321:10 *3115:RESET_B 0
61 *321:10 *347:80 0.000237525
62 *321:10 *347:91 0.00019747
63 *321:12 *347:80 0.000162422
64 *323:12 *3143:RESET_B 8.47124e-05
65 *323:12 *347:52 0.000167443
66 *323:12 *347:72 0.000817196
*RES
1 *3207:X *347:6 25.0507 
2 *347:6 *347:8 1.09786 
3 *347:8 *347:18 48.3736 
4 *347:18 *3127:RESET_B 1.02536 
5 *347:18 *3159:RESET_B 37.7575 
6 *347:8 *3143:RESET_B 32.2268 
7 *347:6 *347:52 17.2579 
8 *347:52 *3175:RESET_B 16.5018 
9 *347:52 *347:72 33.7671 
10 *347:72 *347:80 22.975 
11 *347:80 *3151:RESET_B 15 
12 *347:80 *347:91 20.1371 
13 *347:91 *347:95 28.0086 
14 *347:95 *347:97 2.96214 
15 *347:97 *3146:RESET_B 23.3789 
16 *347:97 *3154:RESET_B 16.5018 
17 *347:95 *3178:RESET_B 25.3882 
18 *347:91 *3115:RESET_B 35.075 
19 *347:72 *3183:RESET_B 0.548929 
*END

*D_NET *348 0.0237097
*CONN
*I *3207:A I *D sky130_fd_sc_hd__clkbuf_4
*I *3186:RESET_B I *D sky130_fd_sc_hd__dfrtp_1
*I *3170:RESET_B I *D sky130_fd_sc_hd__dfrtp_1
*I *3173:RESET_B I *D sky130_fd_sc_hd__dfrtp_1
*I *3181:RESET_B I *D sky130_fd_sc_hd__dfrtp_1
*I *3162:RESET_B I *D sky130_fd_sc_hd__dfrtp_1
*I *3119:RESET_B I *D sky130_fd_sc_hd__dfrtp_4
*I *3118:RESET_B I *D sky130_fd_sc_hd__dfrtp_4
*I *3141:RESET_B I *D sky130_fd_sc_hd__dfrtp_1
*I *3130:RESET_B I *D sky130_fd_sc_hd__dfrtp_1
*I *3208:X O *D sky130_fd_sc_hd__clkbuf_4
*CAP
1 *3207:A 0
2 *3186:RESET_B 0.00102803
3 *3170:RESET_B 1.25628e-05
4 *3173:RESET_B 1.32871e-05
5 *3181:RESET_B 6.82959e-05
6 *3162:RESET_B 0
7 *3119:RESET_B 0
8 *3118:RESET_B 0.000178659
9 *3141:RESET_B 0.000646296
10 *3130:RESET_B 8.45011e-06
11 *3208:X 0
12 *348:145 0.000185986
13 *348:104 8.1583e-05
14 *348:102 0.00109978
15 *348:88 0.00113539
16 *348:86 0.00118258
17 *348:77 0.000928273
18 *348:70 0.00100337
19 *348:48 0.00111576
20 *348:40 0.0011504
21 *348:30 0.00112869
22 *348:18 0.00148483
23 *348:16 0.00185028
24 *348:4 0.000622396
25 *3141:RESET_B *2898:A2 4.92689e-05
26 *3141:RESET_B *405:12 0.000133316
27 *348:18 *3083:A1 2.19403e-05
28 *348:18 *358:6 0.000275149
29 *348:18 *394:6 4.77213e-05
30 *348:18 *394:10 0.000141177
31 *348:70 *427:14 0.000110184
32 *2993:A0 *348:18 0.000187389
33 *3118:CLK *348:40 0.000109434
34 *3118:CLK *348:48 0.00030099
35 *3170:D *3170:RESET_B 7.51453e-06
36 *3170:D *348:102 0.000106277
37 *3175:RESET_B *348:16 9.73965e-05
38 *3230:A *3186:RESET_B 0.000232873
39 *3232:A *348:102 2.22079e-05
40 *79:8 *348:77 0
41 *118:16 *348:40 2.46399e-05
42 *125:22 *3141:RESET_B 5.44014e-05
43 *136:8 *348:48 0
44 *137:10 *348:48 2.10889e-05
45 *156:18 *348:70 9.89966e-05
46 *156:18 *348:77 1.68817e-05
47 *195:93 *348:18 0.00177563
48 *198:55 *3181:RESET_B 6.24895e-05
49 *198:84 *348:102 5.44961e-05
50 *199:133 *3118:RESET_B 0.000214984
51 *199:133 *3141:RESET_B 0.000862494
52 *203:100 *3141:RESET_B 3.95159e-06
53 *203:140 *348:18 0.000487376
54 *212:10 *3130:RESET_B 2.84479e-05
55 *212:10 *348:18 8.82778e-05
56 *212:10 *348:40 3.87353e-06
57 *255:10 *348:102 0.000122208
58 *260:10 *3186:RESET_B 0
59 *263:8 *348:102 0
60 *268:10 *3186:RESET_B 2.64616e-05
61 *280:10 *348:40 0.000345564
62 *280:33 *3141:RESET_B 9.05654e-05
63 *280:44 *348:40 0.000538515
64 *280:119 *3173:RESET_B 4.83949e-05
65 *280:119 *3181:RESET_B 0.000263159
66 *300:6 *3173:RESET_B 1.94432e-05
67 *300:6 *3181:RESET_B 5.41288e-05
68 *302:12 *348:145 0.000273648
69 *302:25 *348:16 5.3304e-05
70 *305:14 *3186:RESET_B 0
71 *308:12 *348:102 8.62073e-06
72 *320:8 *3186:RESET_B 0.000305509
73 *324:44 *348:18 0.000562585
74 *332:33 *3141:RESET_B 0.000213075
75 *332:93 *348:30 6.38342e-05
76 *332:93 *348:70 0.000136609
77 *347:6 *348:145 1.83408e-05
*RES
1 *3208:X *348:4 23 
2 *348:4 *348:16 36.5043 
3 *348:16 *348:18 39.2121 
4 *348:18 *3130:RESET_B 0.548929 
5 *348:18 *348:30 16.3464 
6 *348:30 *348:40 47.9282 
7 *348:40 *348:48 21.0175 
8 *348:48 *3141:RESET_B 46.3539 
9 *348:48 *3118:RESET_B 3.88393 
10 *348:30 *348:70 4.72286 
11 *348:70 *3119:RESET_B 15 
12 *348:70 *348:77 14.5829 
13 *348:77 *3162:RESET_B 15 
14 *348:77 *348:86 16.9057 
15 *348:86 *348:88 0.497143 
16 *348:88 *348:102 39.5499 
17 *348:102 *348:104 15 
18 *348:104 *3181:RESET_B 2.93107 
19 *348:104 *3173:RESET_B 0.548929 
20 *348:88 *3170:RESET_B 0.548929 
21 *348:86 *3186:RESET_B 47.6693 
22 *348:4 *348:145 34.2879 
23 *348:145 *3207:A 23 
*END

*D_NET *349 0.00107145
*CONN
*I *2985:A0 I *D sky130_fd_sc_hd__mux2_1
*I *3209:X O *D sky130_fd_sc_hd__dlygate4sd3_1
*CAP
1 *2985:A0 7.44815e-05
2 *3209:X 0.000171622
3 *349:8 0.000246103
4 *349:8 *427:96 9.34131e-05
5 *2985:S *2985:A0 1.5769e-05
6 *173:10 *349:8 0.000169683
7 *206:59 *349:8 7.1357e-05
8 *318:24 *2985:A0 2.64616e-05
9 *318:24 *349:8 1.97329e-05
10 *325:41 *2985:A0 0.000182826
*RES
1 *3209:X *349:8 43.075 
2 *349:8 *2985:A0 40.0507 
*END

*D_NET *350 0.00132816
*CONN
*I *2980:A0 I *D sky130_fd_sc_hd__mux2_1
*I *3220:X O *D sky130_fd_sc_hd__dlygate4sd3_1
*CAP
1 *2980:A0 0.000110744
2 *3220:X 0.00012887
3 *350:8 0.000239615
4 *2980:A1 *2980:A0 6.99492e-05
5 *2980:S *2980:A0 2.64616e-05
6 *203:25 *350:8 6.25829e-05
7 *203:40 *350:8 0.000313678
8 *325:18 *350:8 0.000376261
*RES
1 *3220:X *350:8 43.075 
2 *350:8 *2980:A0 40.0507 
*END

*D_NET *351 0.020051
*CONN
*I *3099:A1 I *D sky130_fd_sc_hd__mux2_1
*I *3083:A1 I *D sky130_fd_sc_hd__mux2_1
*I *3051:A0 I *D sky130_fd_sc_hd__mux2_1
*I *3067:A1 I *D sky130_fd_sc_hd__mux2_1
*I *3262:X O *D sky130_fd_sc_hd__clkbuf_2
*CAP
1 *3099:A1 0.000256468
2 *3083:A1 7.34692e-05
3 *3051:A0 0
4 *3067:A1 4.55235e-05
5 *3262:X 0.00139175
6 *351:38 0.00094306
7 *351:31 0.000692691
8 *351:25 0.0017188
9 *351:14 0.00207769
10 *351:12 0.0036562
11 *351:8 0.00203701
12 *351:6 0.00139175
13 *3067:A1 *3067:A0 2.93845e-05
14 *3083:A1 *358:6 5.82853e-05
15 *3099:A1 *3099:A0 2.95526e-05
16 *351:14 *3023:A0 0.000153164
17 *351:14 *409:8 0.000140875
18 *351:25 *399:10 4.17929e-05
19 *351:25 *399:29 7.76364e-06
20 *351:31 *2904:A1 4.2573e-05
21 *351:31 *3051:A1 0.000228001
22 *351:31 *423:39 9.58714e-05
23 *3003:A1 *351:25 1.12487e-05
24 *3003:A1 *351:38 5.96687e-05
25 *3003:S *351:25 0.00062643
26 *3225:A *351:31 5.70419e-05
27 *52:10 *351:25 0.000141888
28 *142:8 *351:25 8.62876e-05
29 *184:20 *351:31 0.000285331
30 *195:69 *351:31 5.41288e-05
31 *195:80 *351:31 0.000122226
32 *199:80 *351:14 0.000225275
33 *199:80 *351:25 8.11552e-05
34 *203:87 *351:14 0.000137744
35 *203:146 *3099:A1 2.22503e-05
36 *203:146 *351:38 0.000183812
37 *207:45 *351:14 0
38 *207:62 *351:14 0
39 *207:62 *351:25 0
40 *207:66 *3099:A1 0.000422996
41 *207:66 *351:38 0.00115007
42 *294:25 *351:31 2.93747e-05
43 *324:6 *351:6 0.00122048
44 *348:18 *3083:A1 2.19403e-05
*RES
1 *3262:X *351:6 46.49 
2 *351:6 *351:8 15 
3 *351:8 *351:12 40.2582 
4 *351:12 *351:14 32.1382 
5 *351:14 *3067:A1 38.6214 
6 *351:14 *351:25 11.4136 
7 *351:25 *351:31 30.4114 
8 *351:31 *3051:A0 23 
9 *351:25 *351:38 17.0479 
10 *351:38 *3083:A1 39.0979 
11 *351:38 *3099:A1 44.4007 
*END

*D_NET *352 0.000487934
*CONN
*I *3069:A0 I *D sky130_fd_sc_hd__mux2_1
*I *3231:X O *D sky130_fd_sc_hd__dlygate4sd3_1
*CAP
1 *3069:A0 0
2 *3231:X 0.00017214
3 *352:10 0.00017214
4 *2937:D *352:10 0.000143655
5 *322:34 *352:10 0
*RES
1 *3231:X *352:10 40.7757 
2 *352:10 *3069:A0 38 
*END

*D_NET *353 0.000482456
*CONN
*I *3101:A0 I *D sky130_fd_sc_hd__mux2_1
*I *3239:X O *D sky130_fd_sc_hd__dlygate4sd3_1
*CAP
1 *3101:A0 0.000135915
2 *3239:X 0.000135915
3 *3239:A *3101:A0 5.3304e-05
4 *322:28 *3101:A0 0.000157322
*RES
1 *3239:X *3101:A0 48.5271 
*END

*D_NET *354 0.00109399
*CONN
*I *3081:A0 I *D sky130_fd_sc_hd__mux2_1
*I *3240:X O *D sky130_fd_sc_hd__dlygate4sd3_1
*CAP
1 *3081:A0 0
2 *3240:X 0.000378326
3 *354:10 0.000378326
4 *206:171 *354:10 0
5 *320:25 *354:10 0
6 *333:12 *354:10 0.000188934
7 *345:100 *354:10 0.000148402
*RES
1 *3240:X *354:10 45.1257 
2 *354:10 *3081:A0 38 
*END

*D_NET *355 0.00134806
*CONN
*I *2975:A0 I *D sky130_fd_sc_hd__mux2_1
*I *3241:X O *D sky130_fd_sc_hd__dlygate4sd3_1
*CAP
1 *2975:A0 0
2 *3241:X 0.000151797
3 *355:10 0.000151797
4 *2949:A *355:10 0.000184527
5 *2975:S *355:10 0.00010018
6 *163:24 *355:10 0.000352822
7 *163:32 *355:10 0.00010018
8 *199:118 *355:10 7.44161e-06
9 *337:18 *355:10 0.000201741
10 *338:49 *355:10 9.75779e-05
*RES
1 *3241:X *355:10 30.4571 
2 *355:10 *2975:A0 23 
*END

*D_NET *356 0.0011794
*CONN
*I *3099:A0 I *D sky130_fd_sc_hd__mux2_1
*I *3242:X O *D sky130_fd_sc_hd__dlygate4sd3_1
*CAP
1 *3099:A0 0.000418644
2 *3242:X 6.19298e-05
3 *356:8 0.000480574
4 *3099:A1 *3099:A0 2.95526e-05
5 *3099:S *3099:A0 0.00010018
6 *347:72 *356:8 8.85189e-05
*RES
1 *3242:X *356:8 39.2014 
2 *356:8 *3099:A0 46.0164 
*END

*D_NET *357 0.00066828
*CONN
*I *3085:A0 I *D sky130_fd_sc_hd__mux2_1
*I *3243:X O *D sky130_fd_sc_hd__dlygate4sd3_1
*CAP
1 *3085:A0 0.000198754
2 *3243:X 4.50246e-05
3 *357:8 0.000243779
4 *3085:A0 *3085:A1 1.94693e-05
5 *357:8 *428:27 4.08641e-05
6 *3085:S *3085:A0 3.41017e-05
7 *166:8 *357:8 8.62876e-05
*RES
1 *3243:X *357:8 39.2014 
2 *357:8 *3085:A0 40.5271 
*END

*D_NET *358 0.00110064
*CONN
*I *3083:A0 I *D sky130_fd_sc_hd__mux2_1
*I *3244:X O *D sky130_fd_sc_hd__dlygate4sd3_1
*CAP
1 *3083:A0 0
2 *3244:X 0.000383603
3 *358:6 0.000383603
4 *3083:A1 *358:6 5.82853e-05
5 *348:18 *358:6 0.000275149
*RES
1 *3244:X *358:6 29.815 
2 *358:6 *3083:A0 23 
*END

*D_NET *359 0.000407923
*CONN
*I *3107:A0 I *D sky130_fd_sc_hd__mux2_1
*I *3210:X O *D sky130_fd_sc_hd__dlygate4sd3_1
*CAP
1 *3107:A0 8.54057e-05
2 *3210:X 8.54057e-05
3 *3107:A0 *389:53 0.000184527
4 *3107:S *3107:A0 2.93747e-05
5 *206:86 *3107:A0 2.32101e-05
*RES
1 *3210:X *3107:A0 48.5271 
*END

*D_NET *360 0.000461761
*CONN
*I *3093:A0 I *D sky130_fd_sc_hd__mux2_1
*I *3211:X O *D sky130_fd_sc_hd__dlygate4sd3_1
*CAP
1 *3093:A0 6.46233e-05
2 *3211:X 6.46233e-05
3 *3093:A0 *390:43 0.000141954
4 *3093:S *3093:A0 0.000141052
5 *3211:A *3093:A0 4.95081e-05
*RES
1 *3211:X *3093:A0 48.5271 
*END

*D_NET *361 0.0010841
*CONN
*I *2970:A1 I *D sky130_fd_sc_hd__mux2_1
*I *3212:X O *D sky130_fd_sc_hd__dlygate4sd3_1
*CAP
1 *2970:A1 0.000230512
2 *3212:X 0.000131818
3 *361:8 0.00036233
4 *195:115 *361:8 0
5 *195:126 *361:8 0
6 *318:68 *2970:A1 0.000228903
7 *318:68 *361:8 1.58805e-05
8 *338:49 *361:8 0.000114656
*RES
1 *3212:X *361:8 40.9621 
2 *361:8 *2970:A1 41.48 
*END

*D_NET *362 0.0200871
*CONN
*I *3085:A1 I *D sky130_fd_sc_hd__mux2_1
*I *3053:A0 I *D sky130_fd_sc_hd__mux2_1
*I *3069:A1 I *D sky130_fd_sc_hd__mux2_1
*I *3101:A1 I *D sky130_fd_sc_hd__mux2_1
*I *3263:X O *D sky130_fd_sc_hd__clkbuf_2
*CAP
1 *3085:A1 6.27772e-05
2 *3053:A0 0
3 *3069:A1 2.0995e-05
4 *3101:A1 0
5 *3263:X 0
6 *362:48 0.000496353
7 *362:33 0.000972019
8 *362:24 0.000799264
9 *362:16 0.00331519
10 *362:10 0.00290782
11 *362:8 0.00374732
12 *362:6 0.00374732
13 *362:24 *424:107 0.000654216
14 *2913:B1 *362:24 0.000273453
15 *3069:S *362:48 5.67058e-05
16 *3085:A0 *3085:A1 1.94693e-05
17 *149:12 *362:24 0.000837089
18 *151:10 *362:24 8.62876e-05
19 *154:8 *362:24 7.03766e-05
20 *166:8 *362:24 0
21 *194:104 *362:48 0
22 *206:48 *362:33 0.000397815
23 *206:57 *362:33 0.00016778
24 *273:26 *362:24 0.000123593
25 *276:48 *362:16 1.73399e-05
26 *303:8 *362:16 4.57742e-05
27 *318:12 *362:8 0
28 *322:28 *3069:A1 1.14154e-05
29 *322:28 *362:24 5.50049e-05
30 *322:28 *362:33 0.00115972
31 *322:28 *362:48 4.19743e-05
32 *338:30 *362:8 0
*RES
1 *3263:X *362:6 38 
2 *362:6 *362:8 73.3907 
3 *362:8 *362:10 15 
4 *362:10 *362:16 38.3007 
5 *362:16 *362:24 44.5 
6 *362:24 *3101:A1 23 
7 *362:24 *362:33 13.9821 
8 *362:33 *3069:A1 23.4971 
9 *362:33 *362:48 39.8186 
10 *362:48 *3053:A0 23 
11 *362:16 *3085:A1 24.0979 
*END

*D_NET *363 0.000424131
*CONN
*I *3109:A0 I *D sky130_fd_sc_hd__mux2_1
*I *3213:X O *D sky130_fd_sc_hd__dlygate4sd3_1
*CAP
1 *3109:A0 0.000101361
2 *3213:X 0.000101361
3 *3109:S *3109:A0 0.000110564
4 *3213:A *3109:A0 5.41385e-05
5 *270:10 *3109:A0 5.67058e-05
*RES
1 *3213:X *3109:A0 48.5271 
*END

*D_NET *364 0.00117607
*CONN
*I *3097:A0 I *D sky130_fd_sc_hd__mux2_1
*I *3214:X O *D sky130_fd_sc_hd__dlygate4sd3_1
*CAP
1 *3097:A0 0.000126602
2 *3214:X 0.000113458
3 *364:8 0.00024006
4 *3097:A1 *3097:A0 6.82416e-05
5 *202:106 *3097:A0 0.00010018
6 *202:120 *3097:A0 9.97092e-05
7 *206:150 *3097:A0 5.3304e-05
8 *206:150 *364:8 0.000135547
9 *278:28 *364:8 4.55577e-05
10 *309:21 *364:8 1.22803e-05
11 *317:29 *3097:A0 0.000181131
*RES
1 *3214:X *364:8 40.2579 
2 *364:8 *3097:A0 41.9564 
*END

*D_NET *365 0.00147587
*CONN
*I *3077:A0 I *D sky130_fd_sc_hd__mux2_1
*I *3215:X O *D sky130_fd_sc_hd__dlygate4sd3_1
*CAP
1 *3077:A0 0.000415027
2 *3215:X 9.13662e-05
3 *365:8 0.000506393
4 *3077:A0 *390:18 0.000313181
5 *365:8 *390:14 0
6 *3172:RESET_B *365:8 3.21223e-05
7 *198:6 *3077:A0 2.46906e-05
8 *198:19 *3077:A0 1.5769e-05
9 *206:136 *3077:A0 7.73227e-05
*RES
1 *3215:X *365:8 39.5536 
2 *365:8 *3077:A0 45.4571 
*END

*D_NET *366 0.00106302
*CONN
*I *3067:A0 I *D sky130_fd_sc_hd__mux2_1
*I *3216:X O *D sky130_fd_sc_hd__dlygate4sd3_1
*CAP
1 *3067:A0 0.000294441
2 *3216:X 8.82946e-05
3 *366:8 0.000382736
4 *3067:A1 *3067:A0 2.93845e-05
5 *3067:S *3067:A0 9.84851e-05
6 *346:111 *366:8 0.000169683
*RES
1 *3216:X *366:8 40.2579 
2 *366:8 *3067:A0 43.8621 
*END

*D_NET *367 0.000595393
*CONN
*I *3065:A1 I *D sky130_fd_sc_hd__mux2_1
*I *3217:X O *D sky130_fd_sc_hd__dlygate4sd3_1
*CAP
1 *3065:A1 7.09668e-05
2 *3217:X 9.172e-05
3 *367:8 0.000162687
4 *3065:A0 *3065:A1 0.00014384
5 *3166:RESET_B *367:8 7.03869e-05
6 *194:82 *3065:A1 5.5792e-05
*RES
1 *3217:X *367:8 39.9057 
2 *367:8 *3065:A1 40.0714 
*END

*D_NET *368 0.000467272
*CONN
*I *3105:A0 I *D sky130_fd_sc_hd__mux2_1
*I *3218:X O *D sky130_fd_sc_hd__dlygate4sd3_1
*CAP
1 *3105:A0 0.000120483
2 *3218:X 0.000120483
3 *3218:A *3105:A0 0.000226306
*RES
1 *3218:X *3105:A0 48.5271 
*END

*D_NET *369 0.00118229
*CONN
*I *3103:A0 I *D sky130_fd_sc_hd__mux2_1
*I *3219:X O *D sky130_fd_sc_hd__dlygate4sd3_1
*CAP
1 *3103:A0 0
2 *3219:X 0.000443548
3 *369:10 0.000443548
4 *207:39 *369:10 0.00024018
5 *279:88 *369:10 0
6 *304:10 *369:10 0
7 *304:29 *369:10 0
8 *312:18 *369:10 5.50106e-05
*RES
1 *3219:X *369:10 46.3479 
2 *369:10 *3103:A0 38 
*END

*D_NET *370 0.000922281
*CONN
*I *3053:A1 I *D sky130_fd_sc_hd__mux2_1
*I *3221:X O *D sky130_fd_sc_hd__dlygate4sd3_1
*CAP
1 *3053:A1 0.00031139
2 *3221:X 8.93292e-05
3 *370:8 0.000400719
4 *3053:S *3053:A1 5.47808e-05
5 *194:93 *3053:A1 6.60621e-05
*RES
1 *3221:X *370:8 39.2014 
2 *370:8 *3053:A1 42.4329 
*END

*D_NET *371 0.000986096
*CONN
*I *3059:A1 I *D sky130_fd_sc_hd__mux2_1
*I *3222:X O *D sky130_fd_sc_hd__dlygate4sd3_1
*CAP
1 *3059:A1 0.000305406
2 *3222:X 4.75236e-05
3 *371:8 0.00035293
4 *3059:A1 *389:71 6.17437e-06
5 *194:108 *3059:A1 1.76557e-05
6 *194:119 *3059:A1 0.000132433
7 *290:12 *371:8 3.76854e-05
8 *298:16 *371:8 8.62876e-05
*RES
1 *3222:X *371:8 39.2014 
2 *371:8 *3059:A1 42.4329 
*END

*D_NET *372 0.000282435
*CONN
*I *3087:A0 I *D sky130_fd_sc_hd__mux2_1
*I *3223:X O *D sky130_fd_sc_hd__dlygate4sd3_1
*CAP
1 *3087:A0 4.11656e-05
2 *3223:X 6.81052e-05
3 *372:8 0.000109271
4 *3087:A0 *373:14 2.30292e-05
5 *304:10 *372:8 0
6 *312:8 *372:8 4.08641e-05
*RES
1 *3223:X *372:8 39.2014 
2 *372:8 *3087:A0 38.6214 
*END

*D_NET *373 0.0112427
*CONN
*I *3087:A1 I *D sky130_fd_sc_hd__mux2_1
*I *3103:A1 I *D sky130_fd_sc_hd__mux2_1
*I *3071:A1 I *D sky130_fd_sc_hd__mux2_1
*I *3055:A0 I *D sky130_fd_sc_hd__mux2_1
*I *3264:X O *D sky130_fd_sc_hd__dlymetal6s2s_1
*CAP
1 *3087:A1 0
2 *3103:A1 0
3 *3071:A1 0
4 *3055:A0 0
5 *3264:X 0
6 *373:28 0.000490579
7 *373:20 0.00151492
8 *373:16 0.00127279
9 *373:14 0.00213158
10 *373:10 0.00316756
11 *373:6 0.00128443
12 *373:20 *3071:A0 0.000123934
13 *373:28 *3055:A1 5.50049e-05
14 *3087:A0 *373:14 2.30292e-05
15 *3161:RESET_B *373:28 0
16 *3224:A *373:20 9.91895e-05
17 *194:40 *373:28 2.4754e-05
18 *202:126 *373:14 5.90675e-06
19 *202:126 *373:16 5.60406e-05
20 *202:126 *373:20 0.000274367
21 *243:12 *373:28 0
22 *251:8 *373:28 0
23 *324:10 *373:28 0.000718655
24 *345:16 *373:28 0
*RES
1 *3264:X *373:6 38 
2 *373:6 *373:10 40.1471 
3 *373:10 *373:14 33.7436 
4 *373:14 *373:16 3.48 
5 *373:16 *373:20 15.4114 
6 *373:20 *373:28 40.7507 
7 *373:28 *3055:A0 23 
8 *373:20 *3071:A1 23 
9 *373:16 *3103:A1 23 
10 *373:14 *3087:A1 23 
*END

*D_NET *374 0.000466122
*CONN
*I *3071:A0 I *D sky130_fd_sc_hd__mux2_1
*I *3224:X O *D sky130_fd_sc_hd__dlygate4sd3_1
*CAP
1 *3071:A0 0.000120071
2 *3224:X 0.000120071
3 *198:120 *3071:A0 9.58714e-05
4 *202:126 *3071:A0 6.17437e-06
5 *373:20 *3071:A0 0.000123934
*RES
1 *3224:X *3071:A0 49.0036 
*END

*D_NET *375 0.00053615
*CONN
*I *3051:A1 I *D sky130_fd_sc_hd__mux2_1
*I *3225:X O *D sky130_fd_sc_hd__dlygate4sd3_1
*CAP
1 *3051:A1 0.000154075
2 *3225:X 0.000154075
3 *351:31 *3051:A1 0.000228001
*RES
1 *3225:X *3051:A1 48.5271 
*END

*D_NET *376 0.000532286
*CONN
*I *3061:A1 I *D sky130_fd_sc_hd__mux2_1
*I *3226:X O *D sky130_fd_sc_hd__dlygate4sd3_1
*CAP
1 *3061:A1 3.88656e-05
2 *3226:X 3.88656e-05
3 *3061:A1 *3061:A0 5.67058e-05
4 *3226:A *3061:A1 0.00012377
5 *194:30 *3061:A1 0.000274078
*RES
1 *3226:X *3061:A1 49.0036 
*END

*D_NET *377 0.00129282
*CONN
*I *3111:A0 I *D sky130_fd_sc_hd__mux2_1
*I *3227:X O *D sky130_fd_sc_hd__dlygate4sd3_1
*CAP
1 *3111:A0 0.000247228
2 *3227:X 0.000183357
3 *377:8 0.000430584
4 *3165:RESET_B *377:8 0
5 *3227:A *377:8 8.62876e-05
6 *206:96 *3111:A0 1.03836e-05
7 *316:14 *377:8 0.000216721
8 *319:45 *3111:A0 0.000112087
9 *344:53 *3111:A0 6.17437e-06
*RES
1 *3227:X *377:8 42.0186 
2 *377:8 *3111:A0 41.0036 
*END

*D_NET *378 0.00048996
*CONN
*I *3113:A0 I *D sky130_fd_sc_hd__mux2_1
*I *3228:X O *D sky130_fd_sc_hd__dlygate4sd3_1
*CAP
1 *3113:A0 4.59866e-05
2 *3228:X 4.59866e-05
3 *206:150 *3113:A0 6.9805e-05
4 *206:171 *3113:A0 0.00010018
5 *317:29 *3113:A0 0.000228001
*RES
1 *3228:X *3113:A0 48.5271 
*END

*D_NET *379 0.00100561
*CONN
*I *3055:A1 I *D sky130_fd_sc_hd__mux2_1
*I *3229:X O *D sky130_fd_sc_hd__dlygate4sd3_1
*CAP
1 *3055:A1 0.000318016
2 *3229:X 0.000129782
3 *379:8 0.000447798
4 *194:40 *3055:A1 5.50049e-05
5 *324:10 *379:8 0
6 *373:28 *3055:A1 5.50049e-05
*RES
1 *3229:X *379:8 40.2579 
2 *379:8 *3055:A1 43.8621 
*END

*D_NET *380 0.000444647
*CONN
*I *3057:A1 I *D sky130_fd_sc_hd__mux2_1
*I *3230:X O *D sky130_fd_sc_hd__dlygate4sd3_1
*CAP
1 *3057:A1 8.57058e-05
2 *3230:X 6.02488e-05
3 *380:8 0.000145955
4 *3057:S *3057:A1 5.50049e-05
5 *3186:CLK *380:8 0
6 *3236:A *380:8 1.14452e-05
7 *297:8 *380:8 8.62876e-05
*RES
1 *3230:X *380:8 39.2014 
2 *380:8 *3057:A1 39.0979 
*END

*D_NET *381 0.000613681
*CONN
*I *3095:A0 I *D sky130_fd_sc_hd__mux2_1
*I *3232:X O *D sky130_fd_sc_hd__dlygate4sd3_1
*CAP
1 *3095:A0 2.87035e-05
2 *3232:X 9.81512e-05
3 *381:8 0.000126855
4 *3095:A0 *389:22 9.75779e-05
5 *202:73 *3095:A0 9.58714e-05
6 *319:16 *381:8 0.000166522
*RES
1 *3232:X *381:8 40.2579 
2 *381:8 *3095:A0 39.0979 
*END

*D_NET *382 0.000465116
*CONN
*I *3089:A0 I *D sky130_fd_sc_hd__mux2_1
*I *3233:X O *D sky130_fd_sc_hd__dlygate4sd3_1
*CAP
1 *3089:A0 0.000118557
2 *3233:X 0.000118557
3 *3089:A0 *389:18 0.000228001
*RES
1 *3233:X *3089:A0 48.5271 
*END

*D_NET *383 0.000439788
*CONN
*I *3075:A0 I *D sky130_fd_sc_hd__mux2_1
*I *3234:X O *D sky130_fd_sc_hd__dlygate4sd3_1
*CAP
1 *3075:A0 0.000104131
2 *3234:X 0.000104131
3 *3075:A0 *389:32 4.34559e-05
4 *3075:A0 *389:34 4.65096e-05
5 *3075:A0 *389:38 5.79559e-05
6 *3075:S *3075:A0 2.79692e-05
7 *206:96 *3075:A0 5.56356e-05
*RES
1 *3234:X *3075:A0 48.5271 
*END

*D_NET *384 0.0131649
*CONN
*I *3089:A1 I *D sky130_fd_sc_hd__mux2_1
*I *3105:A1 I *D sky130_fd_sc_hd__mux2_1
*I *3073:A1 I *D sky130_fd_sc_hd__mux2_1
*I *3057:A0 I *D sky130_fd_sc_hd__mux2_1
*I *3265:X O *D sky130_fd_sc_hd__dlymetal6s2s_1
*CAP
1 *3089:A1 5.42061e-05
2 *3105:A1 0.000120356
3 *3073:A1 0
4 *3057:A0 0.00043259
5 *3265:X 0
6 *384:40 0.00115431
7 *384:27 0.00107819
8 *384:10 0.00223855
9 *384:6 0.00428892
10 *384:4 0.0025814
11 *3057:A0 *386:8 0
12 *384:10 *386:8 0
13 *384:27 *3073:A0 5.67058e-05
14 *384:40 *3073:A0 5.50049e-05
15 *3057:S *3057:A0 0.000141052
16 *3073:S *384:27 7.24484e-05
17 *3073:S *384:40 1.40958e-05
18 *3074:A *384:27 3.81016e-05
19 *3186:CLK *384:40 0.000153369
20 *3186:D *384:40 8.08139e-06
21 *3230:A *3057:A0 8.16253e-05
22 *3233:A *3089:A1 0
23 *3233:A *3105:A1 0
24 *3236:A *3057:A0 0
25 *3236:A *384:10 0
26 *25:8 *384:6 3.22879e-05
27 *206:112 *3089:A1 8.62876e-05
28 *206:112 *3105:A1 0.000274543
29 *305:8 *384:40 5.04167e-05
30 *305:14 *3105:A1 0
31 *313:8 *3105:A1 0.000140949
32 *313:16 *3105:A1 1.14452e-05
*RES
1 *3265:X *384:4 23 
2 *384:4 *384:6 46.835 
3 *384:6 *384:10 47.8943 
4 *384:10 *3057:A0 45.3536 
5 *384:10 *384:27 17.5479 
6 *384:27 *3073:A1 23 
7 *384:27 *384:40 29.1271 
8 *384:40 *3105:A1 41.6664 
9 *384:40 *3089:A1 39.2014 
*END

*D_NET *385 0.000431859
*CONN
*I *3063:A1 I *D sky130_fd_sc_hd__mux2_1
*I *3235:X O *D sky130_fd_sc_hd__dlygate4sd3_1
*CAP
1 *3063:A1 0.000123213
2 *3235:X 0.000123213
3 *194:125 *3063:A1 5.50106e-05
4 *194:144 *3063:A1 0.000130423
*RES
1 *3235:X *3063:A1 48.0507 
*END

*D_NET *386 0.000456553
*CONN
*I *3073:A0 I *D sky130_fd_sc_hd__mux2_1
*I *3236:X O *D sky130_fd_sc_hd__dlygate4sd3_1
*CAP
1 *3073:A0 7.02064e-05
2 *3236:X 5.9071e-05
3 *386:8 0.000129277
4 *3057:A0 *386:8 0
5 *3236:A *386:8 8.62876e-05
6 *384:10 *386:8 0
7 *384:27 *3073:A0 5.67058e-05
8 *384:40 *3073:A0 5.50049e-05
*RES
1 *3236:X *386:8 39.2014 
2 *386:8 *3073:A0 39.0979 
*END

*D_NET *387 0.00142732
*CONN
*I *3079:A0 I *D sky130_fd_sc_hd__mux2_1
*I *3237:X O *D sky130_fd_sc_hd__dlygate4sd3_1
*CAP
1 *3079:A0 7.18203e-05
2 *3237:X 7.94701e-05
3 *387:8 0.00015129
4 *3170:CLK *3079:A0 4.17736e-05
5 *198:84 *3079:A0 0.000401899
6 *198:84 *387:8 0.000191157
7 *280:93 *3079:A0 0.000315857
8 *280:99 *387:8 0.000166522
9 *319:22 *3079:A0 7.53384e-06
*RES
1 *3237:X *387:8 40.61 
2 *387:8 *3079:A0 42.4329 
*END

*D_NET *388 0.000511204
*CONN
*I *3091:A0 I *D sky130_fd_sc_hd__mux2_1
*I *3238:X O *D sky130_fd_sc_hd__dlygate4sd3_1
*CAP
1 *3091:A0 0
2 *3238:X 0.000124882
3 *388:10 0.000124882
4 *3163:CLK *388:10 6.17437e-06
5 *202:44 *388:10 7.03766e-05
6 *202:61 *388:10 1.83667e-05
7 *277:116 *388:10 0.000166522
*RES
1 *3238:X *388:10 40.8793 
2 *388:10 *3091:A0 38 
*END

*D_NET *389 0.0199025
*CONN
*I *3059:A0 I *D sky130_fd_sc_hd__mux2_1
*I *3075:A1 I *D sky130_fd_sc_hd__mux2_1
*I *3107:A1 I *D sky130_fd_sc_hd__mux2_1
*I *3091:A1 I *D sky130_fd_sc_hd__mux2_1
*I *3266:X O *D sky130_fd_sc_hd__clkbuf_2
*CAP
1 *3059:A0 0
2 *3075:A1 0
3 *3107:A1 0
4 *3091:A1 9.5208e-05
5 *3266:X 0
6 *389:71 0.00038368
7 *389:53 0.000715551
8 *389:38 0.00108803
9 *389:34 0.000352745
10 *389:32 0.00085916
11 *389:30 0.00164825
12 *389:22 0.00278692
13 *389:18 0.00278859
14 *389:10 0.00286079
15 *389:6 0.00161087
16 *3059:A1 *389:71 6.17437e-06
17 *3075:A0 *389:32 4.34559e-05
18 *3075:A0 *389:34 4.65096e-05
19 *3075:A0 *389:38 5.79559e-05
20 *3089:A0 *389:18 0.000228001
21 *3089:S *389:18 0.000487147
22 *3089:S *389:22 0.000934781
23 *3091:S *3091:A1 2.93845e-05
24 *3095:A0 *389:22 9.75779e-05
25 *3107:A0 *389:53 0.000184527
26 *3163:RESET_B *389:71 0
27 *3165:CLK *389:30 0.000202832
28 *3171:RESET_B *389:30 0.000307938
29 *3210:A *389:53 5.41385e-05
30 *3233:A *389:18 0.000185751
31 *3236:A *389:22 0.000228909
32 *194:108 *389:71 5.73288e-05
33 *202:71 *389:30 5.61255e-06
34 *202:73 *389:22 0.000535675
35 *202:73 *389:30 0.000251675
36 *206:86 *389:53 0.000341291
37 *206:86 *389:71 8.94487e-05
38 *206:96 *389:32 0.000186208
39 *253:8 *389:53 0
40 *253:8 *389:71 0
41 *260:10 *389:18 7.88926e-05
42 *277:116 *389:53 3.31683e-05
43 *290:12 *389:71 0
44 *298:10 *389:30 3.83778e-05
45 *298:16 *389:71 0
46 *321:10 *389:10 0
*RES
1 *3266:X *389:6 38 
2 *389:6 *389:10 46.1336 
3 *389:10 *389:18 26.0586 
4 *389:18 *389:22 33.0393 
5 *389:22 *389:30 48.4979 
6 *389:30 *389:32 5.86214 
7 *389:32 *389:34 1.09786 
8 *389:34 *389:38 4.93 
9 *389:38 *3091:A1 24.5743 
10 *389:38 *389:53 41.2271 
11 *389:53 *3107:A1 23 
12 *389:34 *3075:A1 23 
13 *389:32 *389:71 37.105 
14 *389:71 *3059:A0 23 
*END

*D_NET *390 0.0234164
*CONN
*I *3061:A0 I *D sky130_fd_sc_hd__mux2_1
*I *3077:A1 I *D sky130_fd_sc_hd__mux2_1
*I *3093:A1 I *D sky130_fd_sc_hd__mux2_1
*I *3109:A1 I *D sky130_fd_sc_hd__mux2_1
*I *3267:X O *D sky130_fd_sc_hd__clkbuf_2
*CAP
1 *3061:A0 0.000205982
2 *3077:A1 0
3 *3093:A1 0
4 *3109:A1 6.40593e-05
5 *3267:X 0
6 *390:43 0.000218945
7 *390:26 0.00154523
8 *390:24 0.00132721
9 *390:18 0.000142578
10 *390:14 0.0023001
11 *390:12 0.00309808
12 *390:6 0.00333776
13 *390:4 0.0022562
14 *2931:B1 *390:43 8.68903e-05
15 *3061:A1 *3061:A0 5.67058e-05
16 *3077:A0 *390:18 0.000313181
17 *3093:A0 *390:43 0.000141954
18 *3109:S *3109:A1 0.000143321
19 *3109:S *390:26 0.000282057
20 *3226:A *3061:A0 0.000180218
21 *10:9 *390:6 0.000143543
22 *194:20 *3061:A0 0.000199362
23 *194:20 *390:14 8.65332e-05
24 *194:30 *3061:A0 1.72202e-05
25 *198:6 *390:18 0.000100069
26 *198:19 *3061:A0 2.24973e-05
27 *198:19 *390:18 0.000210792
28 *202:106 *3061:A0 2.02872e-05
29 *206:8 *390:26 0.000620179
30 *206:136 *390:26 0.00101198
31 *275:70 *390:24 2.54046e-05
32 *291:10 *3061:A0 0.000164282
33 *299:12 *390:24 1.85903e-05
34 *324:6 *390:6 0.00323767
35 *327:6 *390:12 0.00183746
36 *339:56 *390:43 0
37 *365:8 *390:14 0
*RES
1 *3267:X *390:4 23 
2 *390:4 *390:6 55.4107 
3 *390:6 *390:12 39.8157 
4 *390:12 *390:14 38.8807 
5 *390:14 *390:18 18.48 
6 *390:18 *390:24 31.2014 
7 *390:24 *390:26 21.1079 
8 *390:26 *3109:A1 24.9471 
9 *390:26 *390:43 34.1843 
10 *390:43 *3093:A1 23 
11 *390:18 *3077:A1 23 
12 *390:14 *3061:A0 43.8414 
*END

*D_NET *391 0.00278896
*CONN
*I *2884:A1 I *D sky130_fd_sc_hd__o21ai_1
*I *2987:A1 I *D sky130_fd_sc_hd__mux2_1
*I *2885:A1 I *D sky130_fd_sc_hd__a21o_1
*I *3127:Q O *D sky130_fd_sc_hd__dfrtp_1
*CAP
1 *2884:A1 8.35164e-05
2 *2987:A1 0.000146786
3 *2885:A1 7.48511e-05
4 *3127:Q 0.000285156
5 *391:16 0.0003848
6 *391:8 0.000531835
7 *2884:A1 *2884:A2 0.000218952
8 *2885:A1 *423:69 2.18409e-05
9 *2885:A1 *423:79 2.4754e-05
10 *2987:A1 *423:69 6.17437e-06
11 *391:8 *423:63 0.00025461
12 *391:16 *2884:A2 5.33597e-05
13 *391:16 *423:69 0.000138727
14 *391:16 *423:79 1.14658e-05
15 *2885:B1 *2885:A1 1.32314e-05
16 *2987:A0 *2987:A1 5.67058e-05
17 *3127:RESET_B *391:8 4.36616e-05
18 *123:10 *2884:A1 0.00015822
19 *123:10 *391:16 0.000218952
20 *163:10 *2884:A1 0
21 *177:12 *391:16 3.81476e-05
22 *347:18 *391:8 2.32101e-05
*RES
1 *3127:Q *391:8 43.8621 
2 *391:8 *391:16 19.0807 
3 *391:16 *2885:A1 24.595 
4 *391:16 *2987:A1 25.5271 
5 *391:8 *2884:A1 40.9621 
*END

*D_NET *392 0.00219395
*CONN
*I *2873:A1 I *D sky130_fd_sc_hd__o21ai_1
*I *2874:A1 I *D sky130_fd_sc_hd__a21o_1
*I *2989:A1 I *D sky130_fd_sc_hd__mux2_1
*I *3128:Q O *D sky130_fd_sc_hd__dfrtp_1
*CAP
1 *2873:A1 3.18617e-05
2 *2874:A1 0.00011508
3 *2989:A1 0
4 *3128:Q 5.74468e-05
5 *392:27 0.0006889
6 *392:12 0.000629169
7 *392:8 0.000144657
8 *2873:A1 *424:49 0
9 *392:8 *424:49 8.50366e-05
10 *392:27 *424:49 0
11 *2989:A0 *392:12 4.96717e-05
12 *2989:A0 *392:27 3.22465e-05
13 *2989:S *392:27 4.33827e-05
14 *112:8 *2874:A1 0.000137651
15 *194:93 *2873:A1 2.72882e-05
16 *194:93 *392:27 0.000111654
17 *198:152 *392:27 2.86218e-05
18 *287:27 *2873:A1 1.12863e-05
19 *322:34 *392:8 0
*RES
1 *3128:Q *392:8 39.2014 
2 *392:8 *392:12 16.0979 
3 *392:12 *2989:A1 23 
4 *392:12 *392:27 24.0729 
5 *392:27 *2874:A1 39.5743 
6 *392:27 *2873:A1 38.8493 
*END

*D_NET *393 0.00419248
*CONN
*I *2881:A1 I *D sky130_fd_sc_hd__a21o_1
*I *2991:A1 I *D sky130_fd_sc_hd__mux2_1
*I *2880:A1 I *D sky130_fd_sc_hd__o21ai_1
*I *3129:Q O *D sky130_fd_sc_hd__dfrtp_1
*CAP
1 *2881:A1 0.000496559
2 *2991:A1 0.000424616
3 *2880:A1 0
4 *3129:Q 7.78349e-05
5 *393:23 0.00127135
6 *393:12 0.000133352
7 *393:6 0.000561361
8 *2991:A1 *401:10 0.000127956
9 *2992:A *2991:A1 9.91548e-05
10 *3137:RESET_B *2991:A1 2.57362e-05
11 *3196:A *393:12 6.18117e-05
12 *54:8 *2881:A1 3.60975e-05
13 *54:8 *393:23 2.35118e-06
14 *119:10 *393:12 0.00021738
15 *199:63 *393:6 3.73222e-05
16 *199:63 *393:23 8.75894e-05
17 *273:76 *393:12 2.62187e-05
18 *296:27 *2991:A1 3.20631e-05
19 *296:27 *393:23 3.6608e-05
20 *320:14 *2881:A1 0.00022823
21 *323:32 *2991:A1 5.58003e-05
22 *324:10 *393:12 4.0544e-05
23 *346:77 *2991:A1 0.000112548
*RES
1 *3129:Q *393:6 24.0979 
2 *393:6 *393:12 34.0186 
3 *393:12 *2880:A1 23 
4 *393:6 *393:23 20.2614 
5 *393:23 *2991:A1 47.1971 
6 *393:23 *2881:A1 45.25 
*END

*D_NET *394 0.00153336
*CONN
*I *2882:A1 I *D sky130_fd_sc_hd__o21ai_1
*I *2993:A1 I *D sky130_fd_sc_hd__mux2_1
*I *2883:A1 I *D sky130_fd_sc_hd__a21o_1
*I *3130:Q O *D sky130_fd_sc_hd__dfrtp_1
*CAP
1 *2882:A1 0
2 *2993:A1 0
3 *2883:A1 0
4 *3130:Q 0.000103696
5 *394:34 0.000134133
6 *394:18 0.000130819
7 *394:10 0.000241617
8 *394:6 0.000348628
9 *394:18 *426:59 0.000160125
10 *121:8 *394:18 0.000162254
11 *121:8 *394:34 3.76854e-05
12 *124:16 *394:18 1.59094e-05
13 *289:14 *394:34 9.5956e-06
14 *348:18 *394:6 4.77213e-05
15 *348:18 *394:10 0.000141177
*RES
1 *3130:Q *394:6 24.5743 
2 *394:6 *394:10 2.42357 
3 *394:10 *394:18 32.8793 
4 *394:18 *2883:A1 23 
5 *394:10 *2993:A1 23 
6 *394:6 *394:34 32.2579 
7 *394:34 *2882:A1 23 
*END

*D_NET *395 0.00151522
*CONN
*I *2870:A1 I *D sky130_fd_sc_hd__a21o_1
*I *2869:A1 I *D sky130_fd_sc_hd__o21ai_1
*I *2995:A1 I *D sky130_fd_sc_hd__mux2_1
*I *3131:Q O *D sky130_fd_sc_hd__dfrtp_1
*CAP
1 *2870:A1 7.11875e-05
2 *2869:A1 0
3 *2995:A1 0
4 *3131:Q 0
5 *395:29 0.000248896
6 *395:14 0.000204086
7 *395:6 0.000490744
8 *395:4 0.000108949
9 *2870:A1 *427:32 5.54799e-05
10 *395:29 *427:44 3.3123e-05
11 *395:29 *427:70 8.42098e-05
12 *395:29 *427:72 2.93335e-05
13 *108:10 *395:29 0
14 *194:104 *395:14 8.85189e-05
15 *194:104 *395:29 0
16 *207:172 *2870:A1 1.14762e-05
17 *207:172 *395:6 1.39431e-05
18 *207:172 *395:14 4.30264e-05
19 *277:90 *395:29 3.22467e-05
*RES
1 *3131:Q *395:4 23 
2 *395:4 *395:6 0.621429 
3 *395:6 *395:14 33.2521 
4 *395:14 *2995:A1 23 
5 *395:6 *395:29 34.785 
6 *395:29 *2869:A1 23 
7 *395:4 *2870:A1 24.0979 
*END

*D_NET *396 0.0024674
*CONN
*I *2872:A1 I *D sky130_fd_sc_hd__a21o_1
*I *2871:A1 I *D sky130_fd_sc_hd__o21ai_1
*I *2997:A1 I *D sky130_fd_sc_hd__mux2_1
*I *3132:Q O *D sky130_fd_sc_hd__dfrtp_1
*CAP
1 *2872:A1 0
2 *2871:A1 0
3 *2997:A1 7.22208e-05
4 *3132:Q 0.00017042
5 *396:29 0.000190989
6 *396:21 0.000353427
7 *396:12 0.000234659
8 *396:10 0.00017042
9 *2997:A1 *404:35 9.41704e-05
10 *2997:A1 *428:42 0.000269076
11 *396:10 *2891:A2 6.17437e-06
12 *396:10 *404:25 0.000164291
13 *396:10 *428:46 1.12487e-05
14 *396:21 *2872:A2 0.000148444
15 *396:21 *404:35 4.08664e-05
16 *396:21 *428:42 9.67842e-05
17 *2997:S *2997:A1 4.93812e-05
18 *3132:RESET_B *396:10 9.8971e-06
19 *3132:RESET_B *396:29 3.45967e-05
20 *110:8 *396:29 8.16356e-05
21 *130:8 *396:21 0.000143535
22 *195:18 *396:10 5.86204e-05
23 *198:142 *396:29 0
24 *344:22 *2997:A1 4.39619e-05
25 *344:22 *396:21 2.25809e-05
*RES
1 *3132:Q *396:10 41.2314 
2 *396:10 *396:12 15 
3 *396:12 *2997:A1 26.0036 
4 *396:12 *396:21 4.43286 
5 *396:21 *396:29 33.8114 
6 *396:29 *2871:A1 23 
7 *396:21 *2872:A1 23 
*END

*D_NET *397 0.00101909
*CONN
*I *2879:A1 I *D sky130_fd_sc_hd__a21o_1
*I *2878:A1 I *D sky130_fd_sc_hd__o21ai_1
*I *2999:A1 I *D sky130_fd_sc_hd__mux2_1
*I *3133:Q O *D sky130_fd_sc_hd__dfrtp_1
*CAP
1 *2879:A1 0.000110956
2 *2878:A1 0
3 *2999:A1 9.37507e-05
4 *3133:Q 6.40187e-05
5 *397:14 0.000163594
6 *397:10 0.000180799
7 *397:8 6.40187e-05
8 *2879:A1 *2879:A2 5.5792e-05
9 *2999:A1 *429:67 6.4554e-05
10 *397:14 *2879:A2 1.9054e-05
11 *397:14 *429:61 1.61385e-05
12 *397:14 *429:67 1.61385e-05
13 *2879:B1 *2879:A1 1.86239e-05
14 *2879:B1 *397:14 7.61229e-06
15 *195:130 *2999:A1 5.82853e-05
16 *292:12 *397:8 8.57577e-05
*RES
1 *3133:Q *397:8 39.2014 
2 *397:8 *397:10 15 
3 *397:10 *397:14 1.94714 
4 *397:14 *2999:A1 25.5271 
5 *397:14 *2878:A1 23 
6 *397:10 *2879:A1 24.5743 
*END

*D_NET *398 0.00186733
*CONN
*I *2875:A1 I *D sky130_fd_sc_hd__o21ai_1
*I *2876:A1 I *D sky130_fd_sc_hd__a21o_1
*I *3001:A1 I *D sky130_fd_sc_hd__mux2_1
*I *3134:Q O *D sky130_fd_sc_hd__dfrtp_1
*CAP
1 *2875:A1 0
2 *2876:A1 0
3 *3001:A1 0.000346309
4 *3134:Q 4.55235e-05
5 *398:33 0.000156777
6 *398:23 0.000271702
7 *398:8 0.000506758
8 *3001:A1 *430:26 0
9 *398:23 *430:81 1.01436e-05
10 *398:33 *430:26 0.000116314
11 *3001:A0 *3001:A1 5.14826e-05
12 *114:12 *398:33 0.000119431
13 *135:12 *3001:A1 2.76611e-06
14 *135:12 *398:23 4.73689e-05
15 *135:12 *398:33 0.000116314
16 *194:82 *398:8 2.93845e-05
17 *195:48 *3001:A1 4.70565e-05
18 *327:10 *3001:A1 0
19 *327:10 *398:23 0
*RES
1 *3134:Q *398:8 38.6214 
2 *398:8 *3001:A1 43.4893 
3 *398:8 *398:23 17.2579 
4 *398:23 *398:33 34.1014 
5 *398:33 *2876:A1 23 
6 *398:23 *2875:A1 23 
*END

*D_NET *399 0.00212751
*CONN
*I *3003:A0 I *D sky130_fd_sc_hd__mux2_1
*I *2904:A2 I *D sky130_fd_sc_hd__o21ai_1
*I *2905:A2 I *D sky130_fd_sc_hd__a21o_1
*I *3135:Q O *D sky130_fd_sc_hd__dfrtp_1
*CAP
1 *3003:A0 0
2 *2904:A2 0
3 *2905:A2 2.63249e-05
4 *3135:Q 0.000519486
5 *399:29 8.8267e-05
6 *399:16 0.000215632
7 *399:14 0.00013719
8 *399:10 0.000555636
9 *399:29 *423:45 7.81176e-05
10 *2905:B1 *2905:A2 2.93747e-05
11 *2905:B1 *399:16 2.18506e-05
12 *3003:A1 *399:16 9.84794e-05
13 *3003:A1 *399:29 0.000165593
14 *3135:RESET_B *399:10 2.95783e-05
15 *52:10 *399:10 8.62783e-05
16 *52:10 *399:14 1.21972e-05
17 *52:10 *399:16 3.7122e-06
18 *207:62 *399:29 1.02387e-05
19 *294:25 *399:10 0
20 *351:25 *399:10 4.17929e-05
21 *351:25 *399:29 7.76364e-06
*RES
1 *3135:Q *399:10 45.6436 
2 *399:10 *399:14 15.6214 
3 *399:14 *399:16 2.05071 
4 *399:16 *2905:A2 23.6214 
5 *399:16 *399:29 32.61 
6 *399:29 *2904:A2 23 
7 *399:14 *3003:A0 23 
*END

*D_NET *400 0.00279687
*CONN
*I *2894:A2 I *D sky130_fd_sc_hd__a21o_1
*I *2893:A2 I *D sky130_fd_sc_hd__o21ai_1
*I *3005:A0 I *D sky130_fd_sc_hd__mux2_1
*I *3136:Q O *D sky130_fd_sc_hd__dfrtp_1
*CAP
1 *2894:A2 0
2 *2893:A2 0
3 *3005:A0 6.58406e-05
4 *3136:Q 0.000225373
5 *400:37 0.000255064
6 *400:20 0.000442007
7 *400:12 0.000121103
8 *400:10 0.000225373
9 *400:10 *424:49 1.00084e-05
10 *400:20 *424:58 0.000184136
11 *400:37 *424:68 5.50049e-05
12 *2893:B1 *400:37 9.84794e-05
13 *2894:B1 *3005:A0 5.2273e-05
14 *2894:B1 *400:20 0.000228967
15 *2937:D *400:37 0.000359326
16 *3006:A *400:37 1.56762e-05
17 *3231:A *400:37 0.000183733
18 *53:8 *400:37 0
19 *131:10 *400:37 0.000163243
20 *199:29 *400:10 2.94423e-05
21 *218:8 *400:37 3.21223e-05
22 *275:27 *400:10 1.24362e-05
23 *322:34 *400:37 3.72639e-05
*RES
1 *3136:Q *400:10 41.9357 
2 *400:10 *400:12 15 
3 *400:12 *400:20 4.14286 
4 *400:20 *3005:A0 24.4707 
5 *400:20 *400:37 37.2707 
6 *400:37 *2893:A2 23 
7 *400:12 *2894:A2 23 
*END

*D_NET *401 0.002525
*CONN
*I *3007:A0 I *D sky130_fd_sc_hd__mux2_1
*I *2901:A2 I *D sky130_fd_sc_hd__a21o_1
*I *2900:A2 I *D sky130_fd_sc_hd__o21ai_1
*I *3137:Q O *D sky130_fd_sc_hd__dfrtp_1
*CAP
1 *3007:A0 0
2 *2901:A2 0
3 *2900:A2 0
4 *3137:Q 0.000305318
5 *401:30 0.000268892
6 *401:18 0.000381912
7 *401:12 0.00011302
8 *401:10 0.000305318
9 *401:30 *425:45 5.18573e-05
10 *2991:A1 *401:10 0.000127956
11 *3008:A *401:18 6.13495e-05
12 *195:48 *401:18 0.000334176
13 *195:48 *401:30 0.000208665
14 *199:63 *401:10 3.28246e-05
15 *199:76 *401:10 1.50326e-05
16 *203:81 *401:18 5.96168e-05
17 *203:81 *401:30 0.000218031
18 *203:87 *401:18 4.10345e-05
*RES
1 *3137:Q *401:10 43.1371 
2 *401:10 *401:12 15 
3 *401:12 *401:18 4.59857 
4 *401:18 *401:30 36.9807 
5 *401:30 *2900:A2 23 
6 *401:18 *2901:A2 23 
7 *401:12 *3007:A0 23 
*END

*D_NET *402 0.00321604
*CONN
*I *2903:A2 I *D sky130_fd_sc_hd__a21o_1
*I *2902:A2 I *D sky130_fd_sc_hd__o21ai_1
*I *3009:A0 I *D sky130_fd_sc_hd__mux2_1
*I *3138:Q O *D sky130_fd_sc_hd__dfrtp_1
*CAP
1 *2903:A2 2.1727e-05
2 *2902:A2 0.000146465
3 *3009:A0 0
4 *3138:Q 0.000273458
5 *402:31 0.000521174
6 *402:16 0.000352982
7 *402:14 0.000273458
8 *2902:A2 *426:23 3.7122e-06
9 *2902:A2 *426:32 7.53133e-06
10 *2903:A2 *426:32 0
11 *402:14 *424:26 5.90471e-05
12 *2903:B1 *2902:A2 1.08287e-05
13 *2903:B1 *2903:A2 4.00259e-06
14 *2903:B1 *402:31 7.88512e-05
15 *3009:A1 *402:31 0.000319689
16 *120:18 *402:31 0.000400606
17 *139:16 *402:31 0.000317988
18 *163:24 *402:31 3.7122e-06
19 *184:14 *2902:A2 3.91386e-05
20 *184:14 *402:31 0.000139352
21 *188:10 *402:31 0
22 *199:139 *402:14 9.5876e-06
23 *332:43 *402:14 0.000232734
*RES
1 *3138:Q *402:14 44.2557 
2 *402:14 *402:16 15 
3 *402:16 *3009:A0 23 
4 *402:16 *402:31 40.9579 
5 *402:31 *2902:A2 25.4236 
6 *402:31 *2903:A2 23.4971 
*END

*D_NET *403 0.00226587
*CONN
*I *2889:A2 I *D sky130_fd_sc_hd__o21ai_1
*I *2890:A2 I *D sky130_fd_sc_hd__a21o_1
*I *3011:A0 I *D sky130_fd_sc_hd__mux2_1
*I *3139:Q O *D sky130_fd_sc_hd__dfrtp_1
*CAP
1 *2889:A2 0.000170955
2 *2890:A2 9.0258e-05
3 *3011:A0 0.000275635
4 *3139:Q 0
5 *403:19 0.00039001
6 *403:6 0.000404433
7 *2889:A2 *427:52 0.000141038
8 *3011:A0 *2963:A1 0.000127229
9 *194:104 *2889:A2 0.000272745
10 *194:104 *3011:A0 8.62876e-05
11 *194:104 *403:19 0.000221193
12 *221:10 *2889:A2 0
13 *221:10 *403:19 0
14 *277:17 *2890:A2 2.93747e-05
15 *325:49 *3011:A0 5.67058e-05
*RES
1 *3139:Q *403:6 38 
2 *403:6 *3011:A0 42.6814 
3 *403:6 *403:19 2.96214 
4 *403:19 *2890:A2 39.9679 
5 *403:19 *2889:A2 41.6664 
*END

*D_NET *404 0.00267581
*CONN
*I *2892:A2 I *D sky130_fd_sc_hd__a21o_1
*I *3013:A0 I *D sky130_fd_sc_hd__mux2_1
*I *2891:A2 I *D sky130_fd_sc_hd__o21ai_1
*I *3140:Q O *D sky130_fd_sc_hd__dfrtp_1
*CAP
1 *2892:A2 0
2 *3013:A0 0
3 *2891:A2 5.17152e-05
4 *3140:Q 0.000229976
5 *404:35 0.000390004
6 *404:25 0.000480587
7 *404:12 0.000372274
8 *2891:A2 *2871:A2 5.56356e-05
9 *404:12 *428:50 1.47563e-05
10 *404:25 *428:50 0.00021673
11 *2997:A1 *404:35 9.41704e-05
12 *2997:S *404:35 5.56279e-05
13 *3132:RESET_B *2891:A2 2.4732e-05
14 *195:18 *404:35 0.000158796
15 *203:60 *404:35 0.000128652
16 *214:8 *404:35 0
17 *275:70 *404:12 3.70094e-05
18 *299:12 *404:12 0
19 *326:43 *404:35 5.67058e-05
20 *326:60 *404:35 5.50049e-05
21 *344:22 *404:35 4.21062e-05
22 *396:10 *2891:A2 6.17437e-06
23 *396:10 *404:25 0.000164291
24 *396:21 *404:35 4.08664e-05
*RES
1 *3140:Q *404:12 42.0807 
2 *404:12 *2891:A2 39.0979 
3 *404:12 *404:25 17.9621 
4 *404:25 *404:35 38.7414 
5 *404:35 *3013:A0 23 
6 *404:25 *2892:A2 23 
*END

*D_NET *405 0.00246924
*CONN
*I *2898:A2 I *D sky130_fd_sc_hd__o21ai_1
*I *2899:A2 I *D sky130_fd_sc_hd__a21o_1
*I *3015:A0 I *D sky130_fd_sc_hd__mux2_1
*I *3141:Q O *D sky130_fd_sc_hd__dfrtp_1
*CAP
1 *2898:A2 0.000177354
2 *2899:A2 0
3 *3015:A0 0.000133695
4 *3141:Q 4.99221e-05
5 *405:12 0.000208345
6 *405:8 0.000301926
7 *2898:A2 *429:43 6.16531e-05
8 *3015:A0 *429:35 0.000265472
9 *405:12 *429:43 0.000108681
10 *3015:A1 *3015:A0 9.84794e-05
11 *3141:RESET_B *2898:A2 4.92689e-05
12 *3141:RESET_B *405:12 0.000133316
13 *125:22 *405:8 5.3304e-05
14 *163:24 *3015:A0 5.91541e-05
15 *199:118 *3015:A0 0.00010018
16 *199:133 *3015:A0 0.000391478
17 *203:100 *2898:A2 2.3529e-05
18 *203:100 *405:12 1.12487e-05
19 *280:33 *2898:A2 0.000226306
20 *332:33 *2898:A2 1.59312e-05
*RES
1 *3141:Q *405:8 38.6214 
2 *405:8 *405:12 16.9057 
3 *405:12 *3015:A0 28.3857 
4 *405:12 *2899:A2 23 
5 *405:8 *2898:A2 42.0807 
*END

*D_NET *406 0.00281221
*CONN
*I *3017:A0 I *D sky130_fd_sc_hd__mux2_1
*I *2896:A2 I *D sky130_fd_sc_hd__a21o_1
*I *2895:A2 I *D sky130_fd_sc_hd__o21ai_1
*I *3142:Q O *D sky130_fd_sc_hd__dfrtp_1
*CAP
1 *3017:A0 0
2 *2896:A2 0.000124239
3 *2895:A2 0.000134206
4 *3142:Q 0.000404146
5 *406:25 0.000330671
6 *406:8 0.000744784
7 *2896:A2 *2896:A1 6.17437e-06
8 *2895:B1 *2895:A2 5.67058e-05
9 *3017:A1 *406:25 0.000235501
10 *3166:RESET_B *406:25 0.000119224
11 *133:10 *2895:A2 5.50106e-05
12 *199:42 *2896:A2 0.000121803
13 *207:37 *2895:A2 5.50106e-05
14 *207:39 *2895:A2 1.72202e-05
15 *320:25 *406:25 6.5117e-06
16 *328:14 *2895:A2 8.62783e-05
17 *328:14 *406:25 0.000250839
18 *345:38 *2895:A2 2.5415e-05
19 *345:38 *406:25 3.84694e-05
*RES
1 *3142:Q *406:8 42.9093 
2 *406:8 *2895:A2 41.2729 
3 *406:8 *406:25 21.8357 
4 *406:25 *2896:A2 25.5271 
5 *406:25 *3017:A0 23 
*END

*D_NET *407 0.00297792
*CONN
*I *2925:A2 I *D sky130_fd_sc_hd__a21o_1
*I *2924:A2 I *D sky130_fd_sc_hd__o21ai_1
*I *3019:A0 I *D sky130_fd_sc_hd__mux2_1
*I *3143:Q O *D sky130_fd_sc_hd__dfrtp_1
*CAP
1 *2925:A2 0.000427106
2 *2924:A2 0
3 *3019:A0 0.000135804
4 *3143:Q 0
5 *407:14 0.000333111
6 *407:4 0.000624413
7 *2925:A2 *423:117 0.00018104
8 *3020:A *3019:A0 0
9 *3143:RESET_B *2925:A2 9.32992e-05
10 *161:10 *3019:A0 0.000207695
11 *161:10 *407:14 0.000102389
12 *281:143 *2925:A2 4.07999e-05
13 *302:12 *407:14 0.000275586
14 *323:12 *407:14 8.85189e-05
15 *347:8 *2925:A2 4.34973e-05
16 *347:18 *2925:A2 0.000424658
*RES
1 *3143:Q *407:4 23 
2 *407:4 *407:14 35.0543 
3 *407:14 *3019:A0 27.1429 
4 *407:14 *2924:A2 23 
5 *407:4 *2925:A2 34.3721 
*END

*D_NET *408 0.00299437
*CONN
*I *2913:A2 I *D sky130_fd_sc_hd__o21ai_1
*I *2914:A2 I *D sky130_fd_sc_hd__a21o_1
*I *3021:A0 I *D sky130_fd_sc_hd__mux2_1
*I *3144:Q O *D sky130_fd_sc_hd__dfrtp_1
*CAP
1 *2913:A2 0.000186402
2 *2914:A2 3.15879e-05
3 *3021:A0 0
4 *3144:Q 0.000226878
5 *408:23 0.00098583
6 *408:10 0.000994718
7 *2913:A2 *2914:A1 0.000205916
8 *2914:A2 *2914:A1 3.91386e-05
9 *2913:B1 *2913:A2 5.50106e-05
10 *3021:A1 *408:10 0.00014411
11 *203:12 *408:10 4.58924e-05
12 *322:16 *408:10 7.88828e-05
13 *340:8 *408:10 0
14 *340:8 *408:23 0
*RES
1 *3144:Q *408:10 42.5364 
2 *408:10 *3021:A0 38 
3 *408:10 *408:23 27.615 
4 *408:23 *2914:A2 23.8493 
5 *408:23 *2913:A2 26.9564 
*END

*D_NET *409 0.00267188
*CONN
*I *3023:A0 I *D sky130_fd_sc_hd__mux2_1
*I *2920:A2 I *D sky130_fd_sc_hd__o21ai_1
*I *2921:A2 I *D sky130_fd_sc_hd__a21o_1
*I *3145:Q O *D sky130_fd_sc_hd__dfrtp_1
*CAP
1 *3023:A0 0.000194795
2 *2920:A2 0
3 *2921:A2 0
4 *3145:Q 7.74675e-05
5 *409:24 0.000170669
6 *409:12 0.000521568
7 *409:8 0.000623162
8 *409:12 *417:8 0.000153288
9 *409:12 *417:14 0.000195185
10 *409:12 *425:139 5.58003e-05
11 *409:24 *425:139 0.000148053
12 *3040:A *409:24 1.35999e-05
13 *3153:CLK *409:12 7.032e-05
14 *3153:D *409:12 4.58484e-05
15 *70:8 *409:24 4.11274e-05
16 *312:18 *409:24 3.50862e-06
17 *323:22 *3023:A0 8.06804e-06
18 *323:26 *3023:A0 1.24298e-05
19 *323:32 *409:24 2.50118e-05
20 *346:67 *409:24 1.794e-05
21 *351:14 *3023:A0 0.000153164
22 *351:14 *409:8 0.000140875
*RES
1 *3145:Q *409:8 39.9057 
2 *409:8 *409:12 23.7207 
3 *409:12 *409:24 33.8736 
4 *409:24 *2921:A2 23 
5 *409:12 *2920:A2 23 
6 *409:8 *3023:A0 41.3557 
*END

*D_NET *410 0.00285357
*CONN
*I *2922:A2 I *D sky130_fd_sc_hd__o21ai_1
*I *3025:A0 I *D sky130_fd_sc_hd__mux2_1
*I *2923:A2 I *D sky130_fd_sc_hd__a21o_1
*I *3146:Q O *D sky130_fd_sc_hd__dfrtp_1
*CAP
1 *2922:A2 0.000221305
2 *3025:A0 4.20545e-05
3 *2923:A2 0.000188491
4 *3146:Q 3.3586e-05
5 *410:12 0.000392625
6 *410:8 0.00041697
7 *2922:A2 *426:109 0
8 *410:8 *2943:A1 0.000140259
9 *2923:B1 *2923:A2 0.00010018
10 *3041:A1 *2922:A2 2.472e-05
11 *3041:A1 *410:12 5.68423e-05
12 *159:8 *2922:A2 0
13 *159:8 *410:12 0
14 *160:10 *2923:A2 0.000192342
15 *160:10 *3025:A0 2.193e-05
16 *175:18 *2922:A2 0.000163352
17 *178:8 *2922:A2 0.000272377
18 *182:12 *410:8 0.000140259
19 *203:125 *2923:A2 2.25419e-05
20 *203:125 *3025:A0 3.71369e-05
21 *228:10 *2923:A2 0.000130729
22 *236:8 *2922:A2 4.08641e-05
23 *305:14 *2922:A2 0.000143655
24 *313:16 *2922:A2 7.1349e-05
*RES
1 *3146:Q *410:8 39.5743 
2 *410:8 *410:12 17.61 
3 *410:12 *2923:A2 28.4271 
4 *410:12 *3025:A0 24.0979 
5 *410:8 *2922:A2 44.3179 
*END

*D_NET *411 0.00345657
*CONN
*I *2910:A2 I *D sky130_fd_sc_hd__a21o_1
*I *3027:A0 I *D sky130_fd_sc_hd__mux2_1
*I *2909:A2 I *D sky130_fd_sc_hd__o21ai_1
*I *3147:Q O *D sky130_fd_sc_hd__dfrtp_1
*CAP
1 *2910:A2 0
2 *3027:A0 0.000338376
3 *2909:A2 0
4 *3147:Q 0.000126715
5 *411:23 0.0007419
6 *411:6 0.000530239
7 *3027:A0 *2910:A1 5.82853e-05
8 *3027:A0 *427:96 5.90675e-06
9 *411:23 *2909:A1 0.000207565
10 *2910:B1 *3027:A0 0.000182826
11 *3126:CLK *411:23 4.0523e-05
12 *43:10 *411:23 3.62219e-05
13 *207:149 *411:23 8.4047e-05
14 *276:78 *411:6 0.000272383
15 *276:78 *411:23 3.79854e-05
16 *318:24 *3027:A0 0.000191957
17 *325:31 *3027:A0 0.000533393
18 *325:41 *3027:A0 6.82514e-05
*RES
1 *3147:Q *411:6 26.0036 
2 *411:6 *2909:A2 23 
3 *411:6 *411:23 36.8564 
4 *411:23 *3027:A0 32.6943 
5 *411:23 *2910:A2 23 
*END

*D_NET *412 0.0022654
*CONN
*I *2912:A2 I *D sky130_fd_sc_hd__a21o_1
*I *3029:A0 I *D sky130_fd_sc_hd__mux2_1
*I *2911:A2 I *D sky130_fd_sc_hd__o21ai_1
*I *3148:Q O *D sky130_fd_sc_hd__dfrtp_1
*CAP
1 *2912:A2 0.000186148
2 *3029:A0 0.000189401
3 *2911:A2 0.000204033
4 *3148:Q 0
5 *412:19 0.000443125
6 *412:4 0.000271609
7 *3148:RESET_B *2911:A2 6.17437e-06
8 *148:10 *2911:A2 5.70419e-05
9 *203:6 *2912:A2 0.000401899
10 *203:6 *3029:A0 8.39276e-05
11 *203:12 *3029:A0 7.88828e-05
12 *325:10 *412:19 5.56203e-05
13 *339:38 *412:19 0.000114083
14 *339:54 *2911:A2 0.000173452
*RES
1 *3148:Q *412:4 23 
2 *412:4 *2911:A2 27.8057 
3 *412:4 *412:19 31.5536 
4 *412:19 *3029:A0 26.48 
5 *412:19 *2912:A2 27.93 
*END

*D_NET *413 0.00160573
*CONN
*I *2918:A2 I *D sky130_fd_sc_hd__o21ai_1
*I *2919:A2 I *D sky130_fd_sc_hd__a21o_1
*I *3031:A0 I *D sky130_fd_sc_hd__mux2_1
*I *3149:Q O *D sky130_fd_sc_hd__dfrtp_1
*CAP
1 *2918:A2 3.3552e-05
2 *2919:A2 7.79951e-05
3 *3031:A0 7.11402e-05
4 *3149:Q 4.99221e-05
5 *413:12 0.000254273
6 *413:6 0.000188612
7 *2919:A2 *2919:A1 0.000195379
8 *3031:A0 *2919:A1 4.98398e-05
9 *413:12 *427:22 0.000164282
10 *3031:A1 *3031:A0 5.50049e-05
11 *3031:S *2919:A2 0.000270682
12 *3031:S *3031:A0 5.3304e-05
13 *155:10 *413:12 0
14 *203:100 *413:12 0
15 *203:125 *2919:A2 3.34247e-05
16 *280:71 *2918:A2 5.50106e-05
17 *280:71 *413:6 5.3304e-05
*RES
1 *3149:Q *413:6 23.6214 
2 *413:6 *413:12 32.2579 
3 *413:12 *3031:A0 24.5743 
4 *413:12 *2919:A2 26.9564 
5 *413:6 *2918:A2 23.6214 
*END

*D_NET *414 0.00153573
*CONN
*I *2916:A2 I *D sky130_fd_sc_hd__a21o_1
*I *3033:A0 I *D sky130_fd_sc_hd__mux2_1
*I *2915:A2 I *D sky130_fd_sc_hd__o21ai_1
*I *3150:Q O *D sky130_fd_sc_hd__dfrtp_1
*CAP
1 *2916:A2 9.46862e-05
2 *3033:A0 0
3 *2915:A2 0
4 *3150:Q 4.29786e-05
5 *414:20 7.0631e-05
6 *414:14 0.000250576
7 *414:8 0.00031761
8 *2916:A2 *430:30 0.000162263
9 *414:14 *430:30 8.71382e-05
10 *3049:A1 *414:20 0.000194318
11 *3134:RESET_B *414:14 0
12 *152:10 *414:20 0.000141879
13 *203:60 *414:8 5.50049e-05
14 *203:60 *414:14 6.53382e-05
15 *327:10 *414:20 0
16 *328:24 *414:14 5.3304e-05
17 *341:65 *414:14 0
*RES
1 *3150:Q *414:8 38.6214 
2 *414:8 *414:14 18.2521 
3 *414:14 *414:20 32.61 
4 *414:20 *2915:A2 23 
5 *414:14 *3033:A0 23 
6 *414:8 *2916:A2 40.2579 
*END

*D_NET *415 0.00187119
*CONN
*I *2944:A2 I *D sky130_fd_sc_hd__o21ai_1
*I *3035:A0 I *D sky130_fd_sc_hd__mux2_1
*I *2945:A2 I *D sky130_fd_sc_hd__a21o_1
*I *3151:Q O *D sky130_fd_sc_hd__dfrtp_1
*CAP
1 *2944:A2 0
2 *3035:A0 0
3 *2945:A2 4.56444e-05
4 *3151:Q 0.000283107
5 *415:18 0.000215528
6 *415:12 0.000169884
7 *415:10 0.000283107
8 *415:10 *423:14 8.62783e-05
9 *180:14 *2945:A2 0.000227208
10 *180:14 *415:18 0.000231306
11 *207:94 *2945:A2 0.000195818
12 *207:94 *415:18 0.000133309
13 *321:10 *415:10 0
*RES
1 *3151:Q *415:10 41.7286 
2 *415:10 *415:12 15 
3 *415:12 *415:18 4.35 
4 *415:18 *2945:A2 25.5271 
5 *415:18 *3035:A0 23 
6 *415:12 *2944:A2 23 
*END

*D_NET *416 0.00195169
*CONN
*I *3037:A0 I *D sky130_fd_sc_hd__mux2_1
*I *2934:A2 I *D sky130_fd_sc_hd__a21o_1
*I *2933:A2 I *D sky130_fd_sc_hd__o21ai_1
*I *3152:Q O *D sky130_fd_sc_hd__dfrtp_1
*CAP
1 *3037:A0 0
2 *2934:A2 0
3 *2933:A2 0.00028359
4 *3152:Q 0
5 *416:36 0.000312781
6 *416:8 0.00044027
7 *416:4 0.00046946
8 *2933:A2 *2934:A1 7.25845e-05
9 *2933:A2 *424:90 2.21084e-05
10 *416:8 *2934:A1 0
11 *2933:B1 *2933:A2 1.59909e-05
12 *2934:B1 *2933:A2 0.000154189
13 *101:8 *416:36 6.03841e-05
14 *207:118 *416:36 0
15 *322:16 *416:36 2.18506e-05
16 *322:28 *416:36 9.84794e-05
17 *339:91 *416:36 0
*RES
1 *3152:Q *416:4 23 
2 *416:4 *416:8 3.25214 
3 *416:8 *2933:A2 28.945 
4 *416:8 *2934:A2 23 
5 *416:4 *416:36 35.945 
6 *416:36 *3037:A0 23 
*END

*D_NET *417 0.00422509
*CONN
*I *3039:A0 I *D sky130_fd_sc_hd__mux2_1
*I *2940:A2 I *D sky130_fd_sc_hd__o21ai_1
*I *2941:A2 I *D sky130_fd_sc_hd__a21o_1
*I *3153:Q O *D sky130_fd_sc_hd__dfrtp_1
*CAP
1 *3039:A0 0.000100117
2 *2940:A2 0
3 *2941:A2 0
4 *3153:Q 0.000512428
5 *417:24 0.000212445
6 *417:14 0.000695301
7 *417:8 0.0010954
8 *417:14 *425:139 1.61385e-05
9 *417:24 *2941:A1 2.95423e-05
10 *417:24 *425:10 3.67392e-05
11 *417:24 *425:12 0.000137744
12 *417:24 *425:20 8.78864e-05
13 *417:24 *425:124 2.64616e-05
14 *3153:CLK *417:14 7.64059e-06
15 *3153:RESET_B *417:8 0.000140689
16 *157:10 *417:24 0.000112396
17 *176:12 *417:14 5.58003e-05
18 *207:45 *3039:A0 7.35277e-05
19 *207:45 *417:14 0.000141724
20 *227:10 *3039:A0 8.36198e-05
21 *227:10 *417:14 0.000141724
22 *304:29 *417:14 2.83509e-05
23 *312:18 *417:24 2.58781e-05
24 *323:32 *3039:A0 1.59094e-05
25 *323:32 *417:24 9.91548e-05
26 *409:12 *417:8 0.000153288
27 *409:12 *417:14 0.000195185
*RES
1 *3153:Q *417:8 45.2914 
2 *417:8 *417:14 23.2443 
3 *417:14 *417:24 34.9093 
4 *417:24 *2941:A2 23 
5 *417:14 *2940:A2 23 
6 *417:8 *3039:A0 39.8229 
*END

*D_NET *418 0.00310668
*CONN
*I *2943:A2 I *D sky130_fd_sc_hd__a21o_1
*I *3041:A0 I *D sky130_fd_sc_hd__mux2_1
*I *2942:A2 I *D sky130_fd_sc_hd__o21ai_1
*I *3154:Q O *D sky130_fd_sc_hd__dfrtp_1
*CAP
1 *2943:A2 0
2 *3041:A0 9.26304e-06
3 *2942:A2 0.000407491
4 *3154:Q 0.000147964
5 *418:38 0.000258037
6 *418:21 0.000324049
7 *418:12 0.000464239
8 *418:10 0.000147964
9 *2942:A2 *2942:A1 2.98648e-05
10 *418:38 *2943:A1 1.76557e-05
11 *2943:B1 *418:38 0
12 *2946:A *418:38 5.67058e-05
13 *3041:A1 *418:38 0
14 *3146:RESET_B *418:10 8.4047e-05
15 *3146:RESET_B *418:38 0
16 *3154:RESET_B *418:10 1.59094e-05
17 *177:12 *418:38 1.14452e-05
18 *178:8 *3041:A0 5.67058e-05
19 *178:8 *418:38 0.000256544
20 *179:6 *418:38 9.84851e-05
21 *207:94 *418:38 0.000185428
22 *313:16 *2942:A2 0.000441065
23 *313:16 *3041:A0 7.53384e-06
24 *313:16 *418:10 8.62876e-05
*RES
1 *3154:Q *418:10 40.2993 
2 *418:10 *418:12 15 
3 *418:12 *2942:A2 29.3386 
4 *418:12 *418:21 1.20143 
5 *418:21 *3041:A0 23.6214 
6 *418:21 *418:38 36.7114 
7 *418:38 *2943:A2 23 
*END

*D_NET *419 0.00244819
*CONN
*I *2929:A2 I *D sky130_fd_sc_hd__o21ai_1
*I *2930:A2 I *D sky130_fd_sc_hd__a21o_1
*I *3043:A0 I *D sky130_fd_sc_hd__mux2_1
*I *3155:Q O *D sky130_fd_sc_hd__dfrtp_1
*CAP
1 *2929:A2 0.000124337
2 *2930:A2 4.84946e-05
3 *3043:A0 1.49546e-05
4 *3155:Q 0.000147803
5 *419:17 0.000402282
6 *419:6 0.000392207
7 *3043:A1 *3043:A0 3.91386e-05
8 *3043:A1 *419:6 1.94812e-05
9 *3043:A1 *419:17 2.13012e-05
10 *165:8 *2929:A2 0.000128527
11 *165:8 *2930:A2 5.67058e-05
12 *165:8 *419:17 4.39725e-05
13 *207:172 *2929:A2 0.000486246
14 *207:172 *419:17 0.000394994
15 *237:10 *419:6 5.25848e-05
16 *285:23 *2929:A2 2.93845e-05
17 *338:26 *419:6 4.57742e-05
*RES
1 *3155:Q *419:6 26.0036 
2 *419:6 *3043:A0 23.4971 
3 *419:6 *419:17 5.88286 
4 *419:17 *2930:A2 24.4707 
5 *419:17 *2929:A2 28.3857 
*END

*D_NET *420 0.00176965
*CONN
*I *2931:A2 I *D sky130_fd_sc_hd__o21ai_1
*I *3045:A0 I *D sky130_fd_sc_hd__mux2_1
*I *2932:A2 I *D sky130_fd_sc_hd__a21o_1
*I *3156:Q O *D sky130_fd_sc_hd__dfrtp_1
*CAP
1 *2931:A2 7.15337e-05
2 *3045:A0 0
3 *2932:A2 0
4 *3156:Q 8.87741e-05
5 *420:21 8.67815e-05
6 *420:14 0.000123469
7 *420:8 0.000227491
8 *420:14 *2931:A1 0
9 *420:14 *428:109 6.07611e-06
10 *3045:S *2931:A2 0.00010018
11 *3045:S *420:8 5.50049e-05
12 *3045:S *420:14 0.000222123
13 *3045:S *420:21 9.84851e-05
14 *3156:RESET_B *420:8 1.24376e-05
15 *167:10 *2931:A2 6.51763e-05
16 *167:10 *420:14 5.08899e-05
17 *326:22 *2931:A2 4.34745e-05
18 *326:22 *420:8 0.000159331
19 *326:22 *420:21 8.6949e-05
20 *326:41 *2931:A2 0.000271476
21 *339:54 *420:14 0
*RES
1 *3156:Q *420:8 25.5479 
2 *420:8 *420:14 33.3143 
3 *420:14 *2932:A2 23 
4 *420:8 *420:21 1.09786 
5 *420:21 *3045:A0 23 
6 *420:21 *2931:A2 26.48 
*END

*D_NET *421 0.00227932
*CONN
*I *2938:A2 I *D sky130_fd_sc_hd__o21ai_1
*I *2939:A2 I *D sky130_fd_sc_hd__a21o_1
*I *3047:A0 I *D sky130_fd_sc_hd__mux2_1
*I *3157:Q O *D sky130_fd_sc_hd__dfrtp_1
*CAP
1 *2938:A2 0.000109431
2 *2939:A2 0
3 *3047:A0 0.000207715
4 *3157:Q 0.000206314
5 *421:14 0.000314427
6 *421:6 0.000422457
7 *2938:A2 *2938:A1 4.79641e-05
8 *3047:A0 *427:32 2.4754e-05
9 *421:14 *2938:A1 9.42796e-05
10 *2939:B1 *421:14 3.31643e-05
11 *207:172 *3047:A0 4.06849e-05
12 *316:14 *2938:A2 5.50049e-05
13 *327:46 *3047:A0 0.000575797
14 *342:69 *2938:A2 9.8971e-06
15 *342:69 *421:6 0.000101775
16 *344:45 *421:14 3.56537e-05
*RES
1 *3157:Q *421:6 26.9564 
2 *421:6 *421:14 32.755 
3 *421:14 *3047:A0 29.815 
4 *421:14 *2939:A2 23 
5 *421:6 *2938:A2 25.0507 
*END

*D_NET *422 0.00190684
*CONN
*I *2936:A2 I *D sky130_fd_sc_hd__a21o_1
*I *3049:A0 I *D sky130_fd_sc_hd__mux2_1
*I *2935:A2 I *D sky130_fd_sc_hd__o21ai_1
*I *3158:Q O *D sky130_fd_sc_hd__dfrtp_1
*CAP
1 *2936:A2 0
2 *3049:A0 5.71862e-05
3 *2935:A2 0
4 *3158:Q 0.000262014
5 *422:36 0.000121135
6 *422:21 0.000232448
7 *422:12 5.41263e-05
8 *422:10 0.000262014
9 *422:10 *430:46 1.14452e-05
10 *3049:A1 *422:10 6.6663e-06
11 *3049:A1 *422:36 0.000218943
12 *171:10 *422:36 5.61311e-05
13 *198:29 *422:10 5.67058e-05
14 *207:22 *3049:A0 0.00010018
15 *207:37 *3049:A0 2.86356e-05
16 *207:37 *422:21 0.000136743
17 *317:14 *422:10 0.000174417
18 *333:12 *3049:A0 5.67058e-05
19 *333:12 *422:21 7.1349e-05
20 *333:18 *422:10 0
21 *341:10 *422:10 0
22 *341:49 *422:10 0
23 *341:49 *422:36 0
*RES
1 *3158:Q *422:10 43.3443 
2 *422:10 *422:12 15 
3 *422:12 *2935:A2 23 
4 *422:12 *422:21 2.07143 
5 *422:21 *3049:A0 25.0714 
6 *422:21 *422:36 32.9621 
7 *422:36 *2936:A2 23 
*END

*D_NET *423 0.0146278
*CONN
*I *2951:A0 I *D sky130_fd_sc_hd__mux2_1
*I *2944:A1 I *D sky130_fd_sc_hd__o21ai_1
*I *2924:A1 I *D sky130_fd_sc_hd__o21ai_1
*I *2925:A1 I *D sky130_fd_sc_hd__a21o_1
*I *2884:A2 I *D sky130_fd_sc_hd__o21ai_1
*I *2885:A2 I *D sky130_fd_sc_hd__a21o_1
*I *2953:A1 I *D sky130_fd_sc_hd__mux2_1
*I *2904:A1 I *D sky130_fd_sc_hd__o21ai_1
*I *2905:A1 I *D sky130_fd_sc_hd__a21o_1
*I *2945:A1 I *D sky130_fd_sc_hd__a21o_1
*I *3115:Q O *D sky130_fd_sc_hd__dfrtp_4
*CAP
1 *2951:A0 0.000220485
2 *2944:A1 0
3 *2924:A1 0
4 *2925:A1 4.99221e-05
5 *2884:A2 9.30337e-05
6 *2885:A2 2.34823e-05
7 *2953:A1 0
8 *2904:A1 1.53034e-05
9 *2905:A1 0
10 *2945:A1 8.0784e-05
11 *3115:Q 0.000115656
12 *423:117 0.000573925
13 *423:102 0.000623848
14 *423:79 0.000493651
15 *423:69 0.000605935
16 *423:63 0.000959086
17 *423:45 8.0529e-05
18 *423:39 0.000571516
19 *423:31 0.00140076
20 *423:29 0.000976108
21 *423:18 0.00122901
22 *423:14 0.000871357
23 *423:8 0.000887559
24 *2884:A1 *2884:A2 0.000218952
25 *2885:A1 *423:69 2.18409e-05
26 *2885:A1 *423:79 2.4754e-05
27 *2885:B1 *423:79 5.3304e-05
28 *2925:A2 *423:117 0.00018104
29 *2951:A1 *2951:A0 0.000528927
30 *2987:A1 *423:69 6.17437e-06
31 *3003:A1 *423:39 0
32 *3159:CLK *423:79 0
33 *60:10 *423:31 0
34 *123:10 *423:79 3.47781e-05
35 *161:10 *423:29 4.92689e-05
36 *161:10 *423:31 0.000111852
37 *161:10 *423:63 1.39317e-05
38 *162:8 *423:29 0
39 *163:10 *423:79 0
40 *177:12 *2884:A2 0.000271392
41 *177:12 *423:69 0.000136486
42 *177:12 *423:79 0
43 *180:14 *2945:A1 9.58714e-05
44 *180:14 *423:14 9.84794e-05
45 *180:14 *423:18 0.000358229
46 *184:20 *2904:A1 2.93845e-05
47 *184:20 *423:39 4.9662e-05
48 *195:65 *423:79 0.000169674
49 *203:138 *423:29 0.0004367
50 *203:146 *423:117 3.98859e-05
51 *207:62 *423:39 6.38845e-05
52 *207:62 *423:45 0.000163352
53 *207:77 *423:14 0
54 *207:94 *423:14 0
55 *209:10 *423:69 2.64616e-05
56 *209:10 *423:79 4.67488e-05
57 *241:10 *423:79 0
58 *265:10 *423:29 7.90568e-05
59 *281:65 *423:29 0.000139647
60 *281:143 *2925:A1 5.3304e-05
61 *281:143 *423:117 5.50106e-05
62 *281:151 *423:29 0.000221184
63 *321:10 *423:8 0
64 *321:10 *423:14 0
65 *321:12 *423:29 0
66 *321:14 *423:31 0
67 *321:14 *423:39 0
68 *332:60 *423:79 5.67058e-05
69 *332:118 *2951:A0 5.25848e-05
70 *347:18 *423:29 0
71 *347:18 *423:63 0.000106351
72 *347:80 *423:29 0
73 *351:31 *2904:A1 4.2573e-05
74 *351:31 *423:39 9.58714e-05
75 *391:8 *423:63 0.00025461
76 *391:16 *2884:A2 5.33597e-05
77 *391:16 *423:69 0.000138727
78 *391:16 *423:79 1.14658e-05
79 *399:29 *423:45 7.81176e-05
80 *415:10 *423:14 8.62783e-05
*RES
1 *3115:Q *423:8 39.9057 
2 *423:8 *423:14 25.3986 
3 *423:14 *423:18 5.28214 
4 *423:18 *2945:A1 24.0979 
5 *423:18 *423:29 32.0479 
6 *423:29 *423:31 2.96214 
7 *423:31 *423:39 24.135 
8 *423:39 *423:45 32.2579 
9 *423:45 *2905:A1 23 
10 *423:39 *2904:A1 23.6214 
11 *423:31 *423:63 41.1029 
12 *423:63 *423:69 17.5271 
13 *423:69 *423:79 39.6114 
14 *423:79 *2953:A1 23 
15 *423:69 *2885:A2 23.4971 
16 *423:63 *2884:A2 41.6664 
17 *423:29 *423:102 15 
18 *423:102 *2925:A1 23.6214 
19 *423:102 *423:117 38.2443 
20 *423:117 *2924:A1 23 
21 *423:14 *2944:A1 23 
22 *423:8 *2951:A0 44.3386 
*END

*D_NET *424 0.0204347
*CONN
*I *2953:A0 I *D sky130_fd_sc_hd__mux2_1
*I *2955:A1 I *D sky130_fd_sc_hd__mux2_1
*I *2873:A2 I *D sky130_fd_sc_hd__o21ai_1
*I *2913:A1 I *D sky130_fd_sc_hd__o21ai_1
*I *2914:A1 I *D sky130_fd_sc_hd__a21o_1
*I *2934:A1 I *D sky130_fd_sc_hd__a21o_1
*I *2933:A1 I *D sky130_fd_sc_hd__o21ai_1
*I *2893:A1 I *D sky130_fd_sc_hd__o21ai_1
*I *2894:A1 I *D sky130_fd_sc_hd__a21o_1
*I *2874:A2 I *D sky130_fd_sc_hd__a21o_1
*I *3116:Q O *D sky130_fd_sc_hd__dfrtp_4
*CAP
1 *2953:A0 0.000188048
2 *2955:A1 0
3 *2873:A2 0
4 *2913:A1 4.31986e-05
5 *2914:A1 0.000123903
6 *2934:A1 9.17817e-05
7 *2933:A1 0
8 *2893:A1 0
9 *2894:A1 0
10 *2874:A2 4.94973e-05
11 *3116:Q 0.000261957
12 *424:107 0.000523878
13 *424:90 0.000583896
14 *424:81 0.00102839
15 *424:68 0.000196248
16 *424:58 0.00152242
17 *424:49 0.00133863
18 *424:41 0.00107029
19 *424:28 0.000718239
20 *424:26 0.00332236
21 *424:16 0.0028184
22 *424:14 0.000450005
23 *424:26 *425:83 0.000809033
24 *2873:A1 *424:49 0
25 *2877:C *424:28 0.000184527
26 *2877:D *424:28 0.000512511
27 *2894:B1 *424:58 2.03369e-05
28 *2913:A2 *2914:A1 0.000205916
29 *2913:B1 *2914:A1 5.3304e-05
30 *2913:B1 *424:107 3.47781e-05
31 *2914:A2 *2914:A1 3.91386e-05
32 *2914:B1 *2914:A1 0.000140556
33 *2933:A2 *2934:A1 7.25845e-05
34 *2933:A2 *424:90 2.21084e-05
35 *2933:B1 *424:90 5.50049e-05
36 *2934:B1 *2934:A1 7.61229e-06
37 *2934:B1 *424:90 6.27077e-05
38 *2937:D *424:68 2.4754e-05
39 *2954:A *424:26 0.00010655
40 *3006:A *424:68 0.000112203
41 *3138:RESET_B *424:26 9.25432e-05
42 *3168:CLK *424:81 7.88828e-05
43 *3168:D *424:81 8.06804e-06
44 *3168:RESET_B *424:58 1.60273e-05
45 *34:10 *2953:A0 0.000105072
46 *34:10 *424:14 5.90503e-05
47 *53:8 *424:68 3.46181e-05
48 *109:14 *424:28 0.00010018
49 *112:8 *2874:A2 0.000107292
50 *112:8 *424:28 2.4754e-05
51 *112:8 *424:41 3.9644e-05
52 *116:8 *424:28 0.000202663
53 *143:12 *2953:A0 4.07999e-05
54 *149:12 *424:107 0.000201371
55 *151:10 *2913:A1 6.17437e-06
56 *151:10 *2914:A1 4.05745e-05
57 *170:10 *424:81 1.47795e-05
58 *170:10 *424:90 0.000178517
59 *187:10 *2953:A0 0
60 *195:65 *2953:A0 0
61 *195:65 *424:14 1.28427e-05
62 *198:152 *424:49 0
63 *207:118 *424:107 0.000207427
64 *207:133 *424:107 0.000311375
65 *279:52 *424:14 0.000226306
66 *287:27 *424:49 0.000100061
67 *295:8 *424:68 3.63546e-05
68 *322:34 *424:49 0
69 *332:43 *424:26 0.000207273
70 *332:60 *2953:A0 7.0429e-05
71 *332:70 *2953:A0 6.93553e-05
72 *362:24 *424:107 0.000654216
73 *392:8 *424:49 8.50366e-05
74 *392:27 *424:49 0
75 *400:10 *424:49 1.00084e-05
76 *400:20 *424:58 0.000184136
77 *400:37 *424:68 5.50049e-05
78 *402:14 *424:26 5.90471e-05
79 *416:8 *2934:A1 0
*RES
1 *3116:Q *424:14 43.1993 
2 *424:14 *424:16 15 
3 *424:16 *424:26 42.63 
4 *424:26 *424:28 14.4379 
5 *424:28 *2874:A2 24.595 
6 *424:28 *424:41 3.02429 
7 *424:41 *424:49 45.1214 
8 *424:49 *2894:A1 23 
9 *424:49 *424:58 7.66429 
10 *424:58 *424:68 33.8529 
11 *424:68 *2893:A1 23 
12 *424:58 *424:81 13.4229 
13 *424:81 *2933:A1 23 
14 *424:81 *424:90 3.85286 
15 *424:90 *2934:A1 25.0921 
16 *424:90 *424:107 43.8786 
17 *424:107 *2914:A1 27.6193 
18 *424:107 *2913:A1 23.6214 
19 *424:41 *2873:A2 23 
20 *424:16 *2955:A1 23 
21 *424:14 *2953:A0 42.4329 
*END

*D_NET *425 0.015552
*CONN
*I *2920:A1 I *D sky130_fd_sc_hd__o21ai_1
*I *2921:A1 I *D sky130_fd_sc_hd__a21o_1
*I *2941:A1 I *D sky130_fd_sc_hd__a21o_1
*I *2940:A1 I *D sky130_fd_sc_hd__o21ai_1
*I *2880:A2 I *D sky130_fd_sc_hd__o21ai_1
*I *2957:A1 I *D sky130_fd_sc_hd__mux2_1
*I *2955:A0 I *D sky130_fd_sc_hd__mux2_1
*I *2881:A2 I *D sky130_fd_sc_hd__a21o_1
*I *2901:A1 I *D sky130_fd_sc_hd__a21o_1
*I *2900:A1 I *D sky130_fd_sc_hd__o21ai_1
*I *3117:Q O *D sky130_fd_sc_hd__dfrtp_4
*CAP
1 *2920:A1 0
2 *2921:A1 0
3 *2941:A1 7.63075e-05
4 *2940:A1 0
5 *2880:A2 0
6 *2957:A1 0.000158468
7 *2955:A0 0
8 *2881:A2 8.38516e-05
9 *2901:A1 0
10 *2900:A1 0.000127841
11 *3117:Q 8.3149e-05
12 *425:139 0.000160382
13 *425:124 0.000314188
14 *425:115 0.000230114
15 *425:83 0.00052738
16 *425:73 0.000960694
17 *425:57 0.000133918
18 *425:49 0.000322925
19 *425:45 0.000686943
20 *425:28 0.00095078
21 *425:20 0.00161305
22 *425:12 0.00117213
23 *425:10 0.000542519
24 *425:8 0.000550593
25 *2881:B1 *2881:A2 4.08664e-05
26 *2881:B1 *425:49 5.5792e-05
27 *2954:A *425:83 0.000185428
28 *3009:A1 *2957:A1 5.3304e-05
29 *3138:CLK *425:83 0.000400198
30 *3138:D *425:83 6.68286e-05
31 *3153:CLK *425:139 9.66668e-05
32 *3196:A *425:28 0.000124098
33 *119:10 *425:20 5.50049e-05
34 *119:10 *425:57 0.000135616
35 *120:8 *425:49 5.12254e-05
36 *120:18 *2957:A1 0.000258998
37 *120:18 *425:73 0.000755924
38 *139:16 *2957:A1 0.000108033
39 *139:16 *425:45 7.78223e-05
40 *139:16 *425:57 4.485e-05
41 *139:16 *425:73 0.000353178
42 *157:10 *425:10 1.16455e-05
43 *157:10 *425:139 1.94812e-05
44 *158:10 *425:10 0.000748312
45 *177:12 *425:10 0
46 *187:10 *425:83 3.22879e-05
47 *195:48 *425:57 5.5792e-05
48 *220:8 *2957:A1 2.02872e-05
49 *273:76 *425:28 9.17136e-05
50 *273:76 *425:73 0.00011263
51 *278:102 *2900:A1 5.74266e-05
52 *279:126 *425:12 2.53488e-05
53 *279:126 *425:20 0.000212948
54 *288:21 *425:20 0.000356724
55 *296:27 *2900:A1 3.82958e-05
56 *312:18 *425:20 2.71575e-05
57 *320:14 *2881:A2 2.02872e-05
58 *320:14 *425:49 9.19392e-05
59 *323:32 *2941:A1 1.61385e-05
60 *323:32 *425:124 4.31152e-05
61 *323:32 *425:139 1.47709e-05
62 *324:10 *425:57 1.11079e-05
63 *324:18 *2957:A1 0.000241346
64 *324:18 *425:73 0.000110913
65 *332:43 *425:83 8.06804e-06
66 *332:60 *2957:A1 3.91386e-05
67 *332:70 *425:83 4.00259e-06
68 *346:67 *425:8 0.000182826
69 *401:30 *425:45 5.18573e-05
70 *409:12 *425:139 5.58003e-05
71 *409:24 *425:139 0.000148053
72 *417:14 *425:139 1.61385e-05
73 *417:24 *2941:A1 2.95423e-05
74 *417:24 *425:10 3.67392e-05
75 *417:24 *425:12 0.000137744
76 *417:24 *425:20 8.78864e-05
77 *417:24 *425:124 2.64616e-05
78 *424:26 *425:83 0.000809033
*RES
1 *3117:Q *425:8 40.0507 
2 *425:8 *425:10 11.7657 
3 *425:10 *425:12 1.90571 
4 *425:12 *425:20 35.88 
5 *425:20 *425:28 24.1039 
6 *425:28 *2900:A1 40.5375 
7 *425:28 *425:45 5.60321 
8 *425:45 *425:49 17.5271 
9 *425:49 *425:57 32.8793 
10 *425:57 *2901:A1 23 
11 *425:49 *2881:A2 24.595 
12 *425:45 *425:73 10.7093 
13 *425:73 *425:83 30.4529 
14 *425:83 *2955:A0 23 
15 *425:73 *2957:A1 43.2614 
16 *425:20 *2880:A2 23 
17 *425:12 *2940:A1 38 
18 *425:10 *425:115 15 
19 *425:115 *2941:A1 24.0979 
20 *425:115 *425:124 2.05071 
21 *425:124 *2921:A1 23 
22 *425:124 *425:139 33.625 
23 *425:139 *2920:A1 23 
*END

*D_NET *426 0.0105468
*CONN
*I *2903:A1 I *D sky130_fd_sc_hd__a21o_1
*I *2922:A1 I *D sky130_fd_sc_hd__o21ai_1
*I *2942:A1 I *D sky130_fd_sc_hd__o21ai_1
*I *2943:A1 I *D sky130_fd_sc_hd__a21o_1
*I *2923:A1 I *D sky130_fd_sc_hd__a21o_1
*I *2882:A2 I *D sky130_fd_sc_hd__o21ai_1
*I *2959:A1 I *D sky130_fd_sc_hd__mux2_1
*I *2883:A2 I *D sky130_fd_sc_hd__a21o_1
*I *2902:A1 I *D sky130_fd_sc_hd__o21ai_1
*I *2957:A0 I *D sky130_fd_sc_hd__mux2_1
*I *3118:Q O *D sky130_fd_sc_hd__dfrtp_4
*CAP
1 *2903:A1 0
2 *2922:A1 0
3 *2942:A1 0.000115605
4 *2943:A1 0.000687479
5 *2923:A1 0
6 *2882:A2 0
7 *2959:A1 0.000219902
8 *2883:A2 8.7967e-05
9 *2902:A1 0
10 *2957:A0 0.000228515
11 *3118:Q 0
12 *426:109 0.000325056
13 *426:90 0.00105148
14 *426:81 0.000694623
15 *426:61 0.000291001
16 *426:59 0.000880215
17 *426:38 0.000646939
18 *426:32 0.000496961
19 *426:23 0.00036677
20 *426:6 0.000388254
21 *2883:B1 *2883:A2 4.00259e-06
22 *2902:A2 *426:23 3.7122e-06
23 *2902:A2 *426:32 7.53133e-06
24 *2903:A2 *426:32 0
25 *2903:B1 *426:32 8.62044e-05
26 *2903:B1 *426:38 5.67058e-05
27 *2922:A2 *426:109 0
28 *2942:A2 *2942:A1 2.98648e-05
29 *2946:A *2943:A1 0.000139129
30 *3199:A *2883:A2 3.7122e-06
31 *3199:A *426:59 6.58557e-05
32 *55:8 *2957:A0 1.01436e-05
33 *120:18 *2957:A0 0
34 *120:18 *426:23 0
35 *120:18 *426:38 0.000471545
36 *120:18 *426:59 2.3529e-05
37 *121:8 *426:59 6.23469e-05
38 *124:16 *2883:A2 5.3304e-05
39 *124:16 *426:38 0.000598607
40 *124:16 *426:59 3.47781e-05
41 *139:16 *2957:A0 5.50049e-05
42 *156:18 *2883:A2 9.41704e-05
43 *156:18 *426:59 0
44 *159:8 *426:90 0
45 *159:8 *426:109 0
46 *178:8 *2942:A1 5.50106e-05
47 *179:6 *2943:A1 1.32939e-05
48 *182:12 *2943:A1 0.000212328
49 *184:14 *426:23 0
50 *220:8 *2957:A0 5.61255e-06
51 *297:8 *426:23 2.08324e-05
52 *297:8 *426:38 4.83941e-05
53 *297:8 *426:59 0.000133159
54 *313:16 *2942:A1 2.64616e-05
55 *320:8 *426:81 9.1405e-05
56 *320:8 *426:90 0.000103815
57 *320:8 *426:109 0.000128811
58 *324:31 *2957:A0 8.05011e-05
59 *324:31 *426:23 0.000107641
60 *332:60 *2957:A0 0.000100803
61 *332:97 *2959:A1 5.3304e-05
62 *332:112 *2959:A1 0.000217531
63 *332:112 *426:61 0.000108309
64 *332:112 *426:81 0.000440597
65 *394:18 *426:59 0.000160125
66 *410:8 *2943:A1 0.000140259
67 *418:38 *2943:A1 1.76557e-05
*RES
1 *3118:Q *426:6 38 
2 *426:6 *2957:A0 42.3086 
3 *426:6 *426:23 18.5836 
4 *426:23 *2902:A1 23 
5 *426:23 *426:32 3.37643 
6 *426:32 *426:38 25.6264 
7 *426:38 *2883:A2 39.9471 
8 *426:38 *426:59 21.6907 
9 *426:59 *426:61 1.57429 
10 *426:61 *2959:A1 26.9771 
11 *426:61 *2882:A2 23 
12 *426:59 *426:81 26.3307 
13 *426:81 *2923:A1 38 
14 *426:81 *426:90 2.96214 
15 *426:90 *2943:A1 48.875 
16 *426:90 *426:109 19.4329 
17 *426:109 *2942:A1 25.0507 
18 *426:109 *2922:A1 23 
19 *426:32 *2903:A1 23 
*END

*D_NET *427 0.0201208
*CONN
*I *2959:A0 I *D sky130_fd_sc_hd__mux2_1
*I *2870:A2 I *D sky130_fd_sc_hd__a21o_1
*I *2869:A2 I *D sky130_fd_sc_hd__o21ai_1
*I *2929:A1 I *D sky130_fd_sc_hd__o21ai_1
*I *2930:A1 I *D sky130_fd_sc_hd__a21o_1
*I *2909:A1 I *D sky130_fd_sc_hd__o21ai_1
*I *2961:A1 I *D sky130_fd_sc_hd__mux2_1
*I *2910:A1 I *D sky130_fd_sc_hd__a21o_1
*I *2889:A1 I *D sky130_fd_sc_hd__o21ai_1
*I *2890:A1 I *D sky130_fd_sc_hd__a21o_1
*I *3119:Q O *D sky130_fd_sc_hd__dfrtp_4
*CAP
1 *2959:A0 0
2 *2870:A2 0
3 *2869:A2 1.64097e-05
4 *2929:A1 0
5 *2930:A1 0
6 *2909:A1 0.000428062
7 *2961:A1 0.000460212
8 *2910:A1 7.5024e-05
9 *2889:A1 0
10 *2890:A1 0
11 *3119:Q 0.000377273
12 *427:146 0.000137426
13 *427:105 0.000888274
14 *427:96 0.000592177
15 *427:78 0.00108219
16 *427:72 0.00127625
17 *427:70 0.000741478
18 *427:52 0.000128569
19 *427:44 0.00103336
20 *427:34 0.00105606
21 *427:32 0.00171134
22 *427:22 0.002751
23 *427:16 0.00103966
24 *427:14 0.000377273
25 *427:22 *2918:A1 0.000271313
26 *427:22 *429:109 0.000111106
27 *2870:A1 *427:32 5.54799e-05
28 *2870:B1 *427:32 3.54437e-05
29 *2889:A2 *427:52 0.000141038
30 *2960:A *427:22 0.000102803
31 *2996:A *427:72 7.88828e-05
32 *3027:A0 *2910:A1 5.82853e-05
33 *3027:A0 *427:96 5.90675e-06
34 *3047:A0 *427:32 2.4754e-05
35 *3048:A *427:32 5.25848e-05
36 *3126:CLK *2909:A1 9.5877e-05
37 *3147:CLK *2909:A1 0
38 *36:10 *427:22 0.000147656
39 *43:10 *2909:A1 1.22506e-05
40 *43:10 *2961:A1 2.14486e-05
41 *48:10 *427:72 5.3304e-05
42 *108:10 *427:70 6.37905e-05
43 *109:8 *427:32 0.00014419
44 *118:6 *427:22 0.000251988
45 *156:8 *427:14 4.67225e-05
46 *166:8 *2909:A1 0.000101466
47 *166:8 *2961:A1 0.000154802
48 *175:10 *427:32 0.000243049
49 *194:104 *427:44 0
50 *202:44 *427:146 4.23714e-05
51 *203:100 *427:22 0
52 *203:125 *427:14 5.48079e-05
53 *206:59 *427:78 0
54 *206:59 *427:96 0
55 *207:133 *2961:A1 0
56 *207:149 *2909:A1 9.37397e-05
57 *207:172 *427:32 8.0224e-05
58 *208:8 *2909:A1 4.41821e-06
59 *208:8 *2961:A1 3.88629e-05
60 *273:50 *2961:A1 0.000105857
61 *276:61 *2961:A1 5.73309e-05
62 *276:78 *2909:A1 9.11744e-05
63 *277:17 *427:52 5.50049e-05
64 *277:90 *427:70 1.98781e-05
65 *277:90 *427:72 0.000104997
66 *290:12 *427:70 1.3523e-05
67 *298:16 *427:44 0.000280621
68 *308:12 *427:22 7.81176e-05
69 *314:12 *427:146 3.98859e-05
70 *318:24 *427:96 0.000101681
71 *318:28 *427:96 1.0092e-05
72 *318:36 *2961:A1 6.07611e-06
73 *325:41 *2910:A1 1.35714e-05
74 *325:41 *427:96 0.000147602
75 *327:46 *427:32 0.000832341
76 *335:12 *427:22 4.83838e-05
77 *338:24 *2909:A1 0.000223692
78 *343:113 *427:96 0.000238358
79 *343:120 *427:78 8.92738e-05
80 *343:120 *427:96 8.06039e-05
81 *348:70 *427:14 0.000110184
82 *349:8 *427:96 9.34131e-05
83 *395:29 *427:44 3.3123e-05
84 *395:29 *427:70 8.42098e-05
85 *395:29 *427:72 2.93335e-05
86 *411:23 *2909:A1 0.000207565
87 *413:12 *427:22 0.000164282
*RES
1 *3119:Q *427:14 44.1521 
2 *427:14 *427:16 15 
3 *427:16 *427:22 36.6257 
4 *427:22 *427:32 42.0114 
5 *427:32 *427:34 15 
6 *427:34 *427:44 31.1364 
7 *427:44 *427:52 32.5271 
8 *427:52 *2890:A1 23 
9 *427:44 *2889:A1 23 
10 *427:34 *427:70 18.8529 
11 *427:70 *427:72 9.67357 
12 *427:72 *427:78 24.425 
13 *427:78 *427:96 26.5379 
14 *427:96 *2910:A1 24.0979 
15 *427:96 *427:105 15 
16 *427:105 *2961:A1 49.1236 
17 *427:105 *2909:A1 47.7771 
18 *427:78 *2930:A1 38 
19 *427:72 *427:146 32.755 
20 *427:146 *2929:A1 23 
21 *427:70 *2869:A2 23.4971 
22 *427:32 *2870:A2 23 
23 *427:16 *2959:A0 23 
*END

*D_NET *428 0.0181052
*CONN
*I *2963:A1 I *D sky130_fd_sc_hd__mux2_1
*I *2932:A1 I *D sky130_fd_sc_hd__a21o_1
*I *2911:A1 I *D sky130_fd_sc_hd__o21ai_1
*I *2912:A1 I *D sky130_fd_sc_hd__a21o_1
*I *2892:A1 I *D sky130_fd_sc_hd__a21o_1
*I *2872:A2 I *D sky130_fd_sc_hd__a21o_1
*I *2871:A2 I *D sky130_fd_sc_hd__o21ai_1
*I *2891:A1 I *D sky130_fd_sc_hd__o21ai_1
*I *2931:A1 I *D sky130_fd_sc_hd__o21ai_1
*I *2961:A0 I *D sky130_fd_sc_hd__mux2_1
*I *3120:Q O *D sky130_fd_sc_hd__dfrtp_4
*CAP
1 *2963:A1 0.000540017
2 *2932:A1 0
3 *2911:A1 0.000117782
4 *2912:A1 0.000100236
5 *2892:A1 0
6 *2872:A2 0.000104356
7 *2871:A2 0.000279637
8 *2891:A1 0
9 *2931:A1 0.000159889
10 *2961:A0 0.000178234
11 *3120:Q 0
12 *428:109 0.000244552
13 *428:94 0.000444117
14 *428:50 0.000447863
15 *428:46 0.000317772
16 *428:42 0.00119088
17 *428:29 0.00141601
18 *428:27 0.00189144
19 *428:25 0.00156389
20 *428:16 0.000496193
21 *428:4 0.000857975
22 *2963:A1 *2963:A0 5.50049e-05
23 *2891:A2 *2871:A2 5.56356e-05
24 *2931:B1 *2931:A1 1.19796e-05
25 *2933:B1 *428:27 0
26 *2964:A *2963:A1 0.000139974
27 *2997:A1 *428:42 0.000269076
28 *2998:A *428:42 0.000525417
29 *3011:A0 *2963:A1 0.000127229
30 *3045:S *428:109 7.75329e-06
31 *3132:RESET_B *2871:A2 0.000176234
32 *129:8 *428:46 5.58975e-06
33 *129:8 *428:50 7.41877e-05
34 *148:10 *2911:A1 1.57571e-05
35 *148:10 *428:109 0.000111852
36 *163:32 *428:27 8.85189e-05
37 *166:8 *428:27 0.000480152
38 *167:10 *2931:A1 0
39 *167:10 *428:109 1.01436e-05
40 *168:12 *2931:A1 2.76611e-06
41 *168:12 *428:27 0.000266208
42 *168:12 *428:29 3.96156e-05
43 *168:12 *428:109 0
44 *170:10 *428:27 8.51329e-05
45 *173:10 *428:27 0
46 *195:18 *428:46 5.44889e-06
47 *202:27 *428:27 0
48 *203:6 *2912:A1 7.15126e-05
49 *203:6 *428:94 0.000195293
50 *206:29 *2931:A1 8.93326e-05
51 *206:40 *2931:A1 1.4471e-05
52 *206:40 *428:27 0.000412394
53 *206:40 *428:29 4.23817e-05
54 *206:59 *428:16 0.000140958
55 *207:16 *428:42 7.57176e-05
56 *207:105 *2911:A1 4.21378e-05
57 *207:105 *428:42 0.000267173
58 *207:105 *428:109 5.50049e-05
59 *207:118 *428:109 6.7177e-06
60 *276:61 *2961:A0 0.000262901
61 *276:61 *428:16 0.000354127
62 *277:10 *428:16 0
63 *325:49 *2963:A1 0.000358425
64 *326:60 *428:42 0.00014196
65 *332:20 *2963:A1 0.00134771
66 *332:20 *428:16 2.30292e-05
67 *332:20 *428:27 6.67868e-05
68 *343:31 *2963:A1 4.75206e-05
69 *343:57 *2963:A1 0.000187129
70 *343:57 *428:16 5.50106e-05
71 *343:113 *428:27 0.000111852
72 *344:22 *2872:A2 0.00027361
73 *344:22 *428:42 2.26778e-05
74 *357:8 *428:27 4.08641e-05
75 *396:10 *428:46 1.12487e-05
76 *396:21 *2872:A2 0.000148444
77 *396:21 *428:42 9.67842e-05
78 *404:12 *428:50 1.47563e-05
79 *404:25 *428:50 0.00021673
80 *420:14 *2931:A1 0
81 *420:14 *428:109 6.07611e-06
*RES
1 *3120:Q *428:4 23 
2 *428:4 *428:16 36.9807 
3 *428:16 *2961:A0 26.0036 
4 *428:16 *428:25 15 
5 *428:25 *428:27 39.2329 
6 *428:27 *428:29 1.90571 
7 *428:29 *2931:A1 42.0186 
8 *428:29 *428:42 32.7729 
9 *428:42 *428:46 15.8493 
10 *428:46 *428:50 18.3143 
11 *428:50 *2891:A1 23 
12 *428:50 *2871:A2 28.5929 
13 *428:46 *2872:A2 41.9979 
14 *428:42 *2892:A1 23 
15 *428:27 *428:94 19.4536 
16 *428:94 *2912:A1 24.5743 
17 *428:94 *428:109 32.8793 
18 *428:109 *2911:A1 25.5686 
19 *428:109 *2932:A1 23 
20 *428:4 *2963:A1 43.3207 
*END

*D_NET *429 0.0165594
*CONN
*I *2963:A0 I *D sky130_fd_sc_hd__mux2_1
*I *2918:A1 I *D sky130_fd_sc_hd__o21ai_1
*I *2919:A1 I *D sky130_fd_sc_hd__a21o_1
*I *2879:A2 I *D sky130_fd_sc_hd__a21o_1
*I *2878:A2 I *D sky130_fd_sc_hd__o21ai_1
*I *2938:A1 I *D sky130_fd_sc_hd__o21ai_1
*I *2939:A1 I *D sky130_fd_sc_hd__a21o_1
*I *2899:A1 I *D sky130_fd_sc_hd__a21o_1
*I *2898:A1 I *D sky130_fd_sc_hd__o21ai_1
*I *2965:A1 I *D sky130_fd_sc_hd__mux2_1
*I *3121:Q O *D sky130_fd_sc_hd__dfrtp_4
*CAP
1 *2963:A0 0.000304529
2 *2918:A1 0.000171075
3 *2919:A1 0.000365558
4 *2879:A2 0.00014561
5 *2878:A2 0
6 *2938:A1 0.000331091
7 *2939:A1 0
8 *2899:A1 0
9 *2898:A1 0
10 *2965:A1 0.000180571
11 *3121:Q 0
12 *429:109 0.000641972
13 *429:67 0.00122911
14 *429:61 0.00115239
15 *429:57 0.000399976
16 *429:55 0.000765642
17 *429:43 0.000123387
18 *429:35 0.000216097
19 *429:31 0.000857809
20 *429:18 0.00129911
21 *429:6 0.00131827
22 *2879:A1 *2879:A2 5.5792e-05
23 *2879:B1 *2879:A2 7.61368e-05
24 *2879:B1 *429:61 0.000268065
25 *2898:A2 *429:43 6.16531e-05
26 *2919:A2 *2919:A1 0.000195379
27 *2919:B1 *2919:A1 7.61229e-06
28 *2938:A2 *2938:A1 4.79641e-05
29 *2963:A1 *2963:A0 5.50049e-05
30 *2999:A0 *429:67 0
31 *2999:A1 *429:67 6.4554e-05
32 *3015:A0 *429:35 0.000265472
33 *3031:A0 *2919:A1 4.98398e-05
34 *3202:A *429:18 0.000141797
35 *116:14 *2963:A0 2.70366e-05
36 *116:14 *429:18 0.000114759
37 *125:22 *429:43 0.000139352
38 *144:6 *2965:A1 0.00010018
39 *153:16 *429:18 6.9805e-05
40 *163:24 *429:35 0.000306338
41 *174:8 *2938:A1 5.52991e-05
42 *182:12 *2918:A1 5.25848e-05
43 *195:130 *429:67 0.000179624
44 *199:110 *429:18 8.4047e-05
45 *199:133 *429:35 2.18409e-05
46 *203:100 *429:43 0.00015795
47 *203:100 *429:55 0
48 *203:125 *2919:A1 2.75275e-06
49 *231:10 *429:67 5.61311e-05
50 *273:10 *2965:A1 2.33476e-05
51 *280:33 *429:43 0.000139352
52 *280:71 *2918:A1 4.96717e-05
53 *283:8 *429:18 0.000356718
54 *316:14 *2938:A1 7.72518e-05
55 *327:10 *2965:A1 7.61279e-05
56 *327:46 *429:67 0
57 *332:20 *2963:A0 2.02872e-05
58 *332:29 *2963:A0 0.000364114
59 *332:33 *2965:A1 5.74223e-05
60 *332:33 *429:31 5.33213e-05
61 *332:33 *429:55 0.000107732
62 *335:12 *2918:A1 0.000133338
63 *335:12 *429:55 0.000265956
64 *335:12 *429:109 7.39923e-05
65 *335:29 *2965:A1 5.88461e-05
66 *335:29 *429:18 0.000263371
67 *335:29 *429:31 0.000177852
68 *335:29 *429:55 0.000670258
69 *336:29 *429:18 3.70071e-06
70 *338:49 *2963:A0 4.84045e-05
71 *342:69 *2938:A1 7.88926e-05
72 *342:71 *2938:A1 0
73 *342:71 *429:67 0
74 *343:31 *2963:A0 0.000407601
75 *344:45 *2938:A1 0
76 *344:45 *2963:A0 0.000218952
77 *344:45 *429:18 3.70187e-05
78 *344:45 *429:67 0
79 *397:14 *2879:A2 1.9054e-05
80 *397:14 *429:61 1.61385e-05
81 *397:14 *429:67 1.61385e-05
82 *405:12 *429:43 0.000108681
83 *421:14 *2938:A1 9.42796e-05
84 *427:22 *2918:A1 0.000271313
85 *427:22 *429:109 0.000111106
*RES
1 *3121:Q *429:6 38 
2 *429:6 *429:18 46.9443 
3 *429:18 *2965:A1 42.06 
4 *429:18 *429:31 2.61 
5 *429:31 *429:35 18.48 
6 *429:35 *429:43 33.8321 
7 *429:43 *2898:A1 23 
8 *429:35 *2899:A1 23 
9 *429:31 *429:55 16.3436 
10 *429:55 *429:57 15 
11 *429:57 *429:61 4.32929 
12 *429:61 *429:67 30.1629 
13 *429:67 *2939:A1 38 
14 *429:67 *2938:A1 44.5043 
15 *429:61 *2878:A2 23 
16 *429:57 *2879:A2 26.3971 
17 *429:55 *429:109 2.25786 
18 *429:109 *2919:A1 43.3857 
19 *429:109 *2918:A1 43.2614 
20 *429:6 *2963:A0 49.2064 
*END

*D_NET *430 0.0129534
*CONN
*I *2965:A0 I *D sky130_fd_sc_hd__mux2_1
*I *2896:A1 I *D sky130_fd_sc_hd__a21o_1
*I *2895:A1 I *D sky130_fd_sc_hd__o21ai_1
*I *2875:A2 I *D sky130_fd_sc_hd__o21ai_1
*I *2876:A2 I *D sky130_fd_sc_hd__a21o_1
*I *2916:A1 I *D sky130_fd_sc_hd__a21o_1
*I *2936:A1 I *D sky130_fd_sc_hd__a21o_1
*I *2915:A1 I *D sky130_fd_sc_hd__o21ai_1
*I *2935:A1 I *D sky130_fd_sc_hd__o21ai_1
*I *3122:Q O *D sky130_fd_sc_hd__dfrtp_4
*CAP
1 *2965:A0 0.000193028
2 *2896:A1 4.839e-05
3 *2895:A1 0.000305145
4 *2875:A2 0
5 *2876:A2 0
6 *2916:A1 3.33048e-05
7 *2936:A1 0
8 *2915:A1 0
9 *2935:A1 0
10 *3122:Q 0.000652431
11 *430:102 0.0004392
12 *430:98 0.000914145
13 *430:81 0.000163193
14 *430:46 0.000218522
15 *430:36 0.000327967
16 *430:30 0.000299143
17 *430:26 0.000934699
18 *430:20 0.000859046
19 *430:16 0.000532896
20 *430:14 0.00118976
21 *430:10 0.000984385
22 *2896:A2 *2896:A1 6.17437e-06
23 *2916:A2 *430:30 0.000162263
24 *2916:B1 *2916:A1 4.98295e-05
25 *3001:A0 *430:26 0.000191243
26 *3001:A0 *430:30 0.000107854
27 *3001:A1 *430:26 0
28 *3034:A *430:36 3.91386e-05
29 *3049:A1 *430:30 8.41115e-05
30 *3049:A1 *430:46 0.000187986
31 *3122:RESET_B *430:10 4.58951e-05
32 *3166:RESET_B *2895:A1 0.000131843
33 *3166:RESET_B *430:102 7.52305e-05
34 *39:8 *2965:A0 3.72639e-05
35 *39:8 *430:14 2.08324e-05
36 *59:10 *2895:A1 0.000215782
37 *114:12 *430:26 0.00014411
38 *134:6 *2916:A1 0.000100477
39 *134:12 *430:26 0
40 *135:12 *430:26 0.000117352
41 *135:12 *430:81 0
42 *153:16 *430:26 0
43 *198:33 *2895:A1 0.000248699
44 *198:33 *430:98 0
45 *198:33 *430:102 7.17279e-05
46 *199:42 *2896:A1 9.97435e-06
47 *203:71 *430:98 8.57485e-05
48 *203:100 *430:98 0.000720745
49 *207:37 *2895:A1 5.50106e-05
50 *224:8 *2895:A1 0.000165844
51 *232:8 *430:30 8.85189e-05
52 *278:102 *430:98 0.000228233
53 *278:115 *430:98 0.000503277
54 *278:132 *430:14 0.000195248
55 *317:14 *430:46 7.75329e-06
56 *327:10 *2965:A0 9.85728e-05
57 *327:10 *430:14 1.52362e-05
58 *327:10 *430:46 0
59 *327:10 *430:81 0
60 *332:33 *2965:A0 1.47563e-05
61 *332:43 *2965:A0 8.41115e-05
62 *333:12 *2895:A1 5.67058e-05
63 *336:10 *2965:A0 0
64 *336:10 *430:14 0
65 *341:65 *430:30 0
66 *345:38 *2895:A1 0.000137153
67 *345:70 *430:10 0.000128401
68 *398:23 *430:81 1.01436e-05
69 *398:33 *430:26 0.000116314
70 *414:14 *430:30 8.71382e-05
71 *422:10 *430:46 1.14452e-05
*RES
1 *3122:Q *430:10 46.7414 
2 *430:10 *430:14 18.6664 
3 *430:14 *430:16 3.48 
4 *430:16 *430:20 2.54786 
5 *430:20 *430:26 29.6243 
6 *430:26 *430:30 20.4271 
7 *430:30 *430:36 2.09214 
8 *430:36 *430:46 34.0807 
9 *430:46 *2935:A1 23 
10 *430:36 *2915:A1 23 
11 *430:30 *2936:A1 23 
12 *430:26 *2916:A1 39.0979 
13 *430:20 *2876:A2 23 
14 *430:16 *430:81 32.9621 
15 *430:81 *2875:A2 23 
16 *430:14 *430:98 48.0421 
17 *430:98 *430:102 17.2579 
18 *430:102 *2895:A1 48.2743 
19 *430:102 *2896:A1 38.6214 
20 *430:10 *2965:A0 43.075 
*END
